New structure                           
   1.00000000000000     
     3.1120000000000001    0.0000000000000000    0.0000000000000000
    -1.5559999999999994    2.6950710565771732    0.0000000000000000
     0.0000000000000000    0.0000000000000000    4.9820000000000002
   Al
     2
Direct
  0.3333333333333357  0.6666666666666643  0.0000000000000000
  0.6666666666666643  0.3333333333333357  0.5000000000000000
 
  0.00000000E+00  0.00000000E+00  0.00000000E+00
  0.00000000E+00  0.00000000E+00  0.00000000E+00
