New structure                           
   1.00000000000000     
     3.1120000000000001        0.0000000000000000        0.0000000000000000     
    -1.5559999999999994        2.6950710565771732        0.0000000000000000     
     0.0000000000000000        0.0000000000000000        4.9820000000000002     
   Al  N
   2  2
Cartesian
   4.4408920985006262E-016   1.7967140377181154        0.0000000000000000     
   1.5560000000000000       0.89835701885905772        2.4910000000000001     
    4.4408920985006262E-016   1.7967140377181154        3.1137500000000000     
    1.5560000000000000       0.89835701885905772       0.62275000000000003     
