New structure                           
   1.00000000000000     
     0.0000000000000000  -17.1805734624895479    0.0000000000000000
     0.0000000000000000   -8.5902867312447739  -14.8788130701007191
    30.0000000000000000    0.0000000000000000    0.0000000000000000
   Al   N 
   252     1
Direct
  0.4445005519323430  0.4443322294686425  0.0779906295417114
  0.4443293900723009  0.7778974665195614  0.0787244106073489
  0.4442883854561950  0.1112548664257142  0.0787737707832122
  0.7779458125106813  0.4443835755912665  0.0788067096807585
  0.7778318779712233  0.7776695773908887  0.0789775404093426
  0.7777900814514266  0.1112548664257142  0.0787737707832122
  0.1110039452313873  0.4443835755912665  0.0788067096807585
  0.1111064767414736  0.7778974665195614  0.0787244106073489
  0.1112302615838243  0.1108728101656942  0.0787332503657593
  0.5553601149367868  0.5554646677635813  0.1567190544334554
  0.5556444566877600  0.8889045068684451  0.1570404951497998
  0.5555338284102268  0.2222656765128826  0.1568596101652210
  0.8889158811067395  0.5555015711198499  0.1569312906617571
  0.8887843697771238  0.8889045068684451  0.1570404951497998
  0.8890171760634293  0.2222362447743191  0.1568944949920582
  0.2225085506329673  0.5554646677635813  0.1567190544334554
  0.2222894812119427  0.8887543709094432  0.1568081210559532
  0.2220799124955802  0.2222362447743191  0.1568944949920582
  0.6667687461130549  0.6665870953331792  0.2336826975945930
  0.6667464608451176 -0.0001595883569069  0.2338800960090726
  0.6663416815438542  0.3335492583651420  0.2334910225737216
 -0.0000225081129056  0.6665870953331792  0.2336826975945930
  0.0002803750223293 -0.0002138288049500  0.2337391085674528
  0.0000658952485144  0.3332015428363070  0.2336457988988020
  0.3336486533398816  0.6660360266535724  0.2337390133441831
  0.3332667871159564 -0.0002138288049500  0.2337391085674528
  0.3334423934243395  0.3335492583651420  0.2334910225737216
  0.7780911079212273  0.7771511174908815  0.3114816427746568
  0.7777243914326268  0.1113252179813831  0.3116995647868256
  0.7775830469746603  0.4443364996853799  0.3115127348854070
  0.1113459869288233  0.7775709306852697  0.3114559550803987
  0.1111978207065968  0.1109376919201492  0.3117290077983854
  0.1114137866732953  0.4443364996853799  0.3115127348854070
  0.4444164157192431  0.7775709306852697  0.3114559550803987
  0.4442837239193257  0.1113252179813831  0.3116995647868256
  0.4444457434685916  0.4444418463961460  0.3114029084403221
  0.8891733913009016  0.8885000314024316  0.3895364582503483
  0.8888729734734317  0.2223784892834345  0.3897005270377841
  0.8889742620246056  0.5553848092841183  0.3896316054306118
  0.2225555985033839  0.8882221363265609  0.3898513947839108
  0.2220818705764624  0.2223784892834345  0.3897005270377841
  0.2223835793839407  0.5558262153317282  0.3891753932051663
  0.5556599106299954  0.8885000314024316  0.3895364582503483
  0.5551075044436566  0.2231183244460222  0.3896336300361928
  0.5551235386176668  0.5558262153317282  0.3891753932051663
 -0.0000507296824176  0.0003107142952536  0.4663134899854242
  0.0000380651215766  0.3332572030901826  0.4668132268349225
 -0.0002772211653843  0.6664825178114503  0.4661694141352186
  0.3330733487204997  0.0003107142952536  0.4663134899854242
  0.3333571762357331  0.3330373656166736  0.4667357183967761
  0.3319706135925650  0.6693921061482057  0.4658137815921241
  0.6668005166056866 -0.0002676998780452  0.4659576889396381
  0.6669387914809290  0.3330373656166736  0.4667357183967761
  0.6671280366872626  0.6664825178114503  0.4661694141352186
  0.1112634852166777  0.1108063628999874  0.5452726834703781
  0.1111758195845933  0.4454208141574714  0.5448395048208775
  0.1100567196570999  0.7779167524835856  0.5444164722308447
  0.4446872992245295  0.1105435974205798  0.5445671921935100
  0.4435683805632116  0.4461965722069056  0.5510435444243063
  0.4453598611926503  0.7779167524835856  0.5444164722308447
  0.7781024366882264  0.1105435974205798  0.5445671921935100
  0.7767366995912708  0.4454208141574714  0.5448395048208775
  0.7776908478594975  0.7779516376143408  0.5441160684708370
  0.2777169089246022  0.2776706118980517  0.0788067096807585
  0.2776655628019782  0.6111672185990146  0.0779906295417114
  0.2777169089246022  0.9446124791773456  0.0788067096807585
  0.6112307998528971  0.2777731434081379  0.0787244106073489
  0.6112307998528971  0.6109960567389723  0.0787244106073489
  0.6110029107242244  0.9444985446378876  0.0789775404093426
  0.9442061434990227  0.2778969282504887  0.0787332503657593
  0.9445881997590425  0.6109550521228666  0.0787737707832122
  0.9445881997590425  0.9444567481180909  0.0787737707832122
  0.3887980010969102  0.3891752172996318  0.1567190544334554
  0.3887980010969102  0.7220267816034511  0.1567190544334554
  0.3888349044531783  0.0555825477734108  0.1569312906617571
  0.7220877042427789  0.3889561478786070  0.1568081210559532
  0.7222378402017808  0.7223111233544243  0.1570404951497998
  0.7222378402017808  0.0554510364437947  0.1570404951497998
  0.0555695781076549  0.3887465791622445  0.1568944949920582
  0.0555990098462183  0.7222004950768911  0.1568596101652210
  0.0555695781076549  0.0556838427301006  0.1568944949920582
  0.4993693599869079  0.5003153200065462  0.2337390133441831
  0.4999204286665145  0.8334354127797263  0.2336826975945930
  0.4999204286665145  0.1666441585537588  0.2336826975945930
  0.8331195045283856  0.4999334537826207  0.2337391085674528
  0.8331737449764287  0.8334131275117890  0.2338800960090726
  0.8331195045283856  0.1669470416889936  0.2337391085674528
  0.1668825916984706  0.5001090600910036  0.2334910225737216
  0.1668825916984706  0.8330083482105256  0.2334910225737216
  0.1665348761696356  0.1667325619151786  0.2336457988988020
  0.6109042640186054  0.6110830823859144  0.3114559550803987
  0.6104844508242172  0.9447577745878916  0.3114816427746568
  0.6109042640186054  0.2780126535954875  0.3114559550803987
  0.9446585513147118  0.6109503905859968  0.3116995647868256
  0.9446585513147118  0.9443910580992911  0.3116995647868256
  0.9442710252534778  0.2778644873732611  0.3117290077983854
  0.2777751797294817  0.6111124101352632  0.3114029084403221
  0.2776698330187156  0.9442497136413246  0.3115127348854070
  0.2776698330187156  0.2780804533399595  0.3115127348854070
  0.7218333647357673  0.7223265772966597  0.3895364582503483
  0.7218333647357673  0.0558400579675730  0.3895364582503483
  0.7215554696598966  0.3892222651700482  0.3898513947839108
  0.0564516577793579  0.7217741711103209  0.3896336300361928
  0.0557118226167702  0.0555396401401031  0.3897005270377841
  0.0557118226167702  0.3887485372431265  0.3897005270377841
  0.3891595486650566  0.7217902052843311  0.3891753932051663
  0.3887181426174461  0.0556409286912769  0.3896316054306118
  0.3891595486650566  0.3890502460506052  0.3891753932051663
  0.8330656334552904  0.8334671832723580  0.4659576889396381
  0.8336440476285893  0.1666159369842467  0.4663134899854242
  0.8336440476285893  0.4997400153871639  0.4663134899854242
  0.1663706989500021  0.8336054581476005  0.4667357183967761
  0.1665905364235112  0.1667047317882409  0.4668132268349225
  0.1663706989500021  0.5000238429023974  0.4667357183967761
  0.4998158511447862  0.8337947033539340  0.4661694141352186
  0.4998158511447862  0.1663894455012799  0.4661694141352186
  0.5027254394815415  0.4986372802592293  0.4658137815921241
  0.9438769307539084  0.9447691033548907  0.5445671921935100
  0.9441396962333158  0.2779301518833421  0.5452726834703781
  0.9438769307539084  0.6113539658912011  0.5445671921935100
  0.2787541474908071  0.9434033662579351  0.5448395048208775
  0.2787541474908071  0.2778424862512577  0.5448395048208775
  0.2795299055402413  0.6102350472298828  0.5510435444243063
  0.6112849709476765  0.9443575145261618  0.5441160684708370
  0.6112500858169213  0.2767233863237641  0.5444164722308447
  0.6112500858169213  0.6120265278593212  0.5444164722308447
  0.2775133435338876  0.4441800102005519  0.0783539664641547
  0.2775133435338876  0.7783066462655605  0.0783539664641547
  0.2776730092293463  0.1111634953853304  0.0786376259813717
  0.6116399795988962  0.4441800102005519  0.0783539664641547
  0.6109971457802665  0.7776638124469308  0.0786269740932235
  0.6109971457802665  0.1113390417728097  0.0786269740932235
  0.9444968287186590  0.4443396758960106  0.0786376259813717
  0.9446723751061381  0.7776638124469308  0.0786269740932235
  0.9444968287186590  0.1111634953853304  0.0786376259813717
  0.3888888888888857  0.5555555555555571  0.1563987388149796
  0.3888505239262101  0.8887550604269678  0.1570193325429589
  0.3888505239262101  0.2223944156468152  0.1570193325429589
  0.7220883937603035  0.5555171905928813  0.1570193325429589
  0.7222222222222214  0.8888888888888857  0.1573666559043447
  0.7220883937603035  0.2223944156468152  0.1570193325429589
  0.0557277489801509  0.5555171905928813  0.1570193325429589
  0.0557277489801509  0.8887550604269678  0.1570193325429589
  0.0555555555555571  0.2222222222222214  0.1568525890064089
  0.4998092996246690  0.6664759662913334  0.2334846266167220
  0.4999368913058054  0.0000315543470973  0.2336497215416246
  0.4998092996246690  0.3337147340839977  0.2334846266167220
  0.8333648876804330  0.6666035579724697  0.2336497215416246
  0.8333648876804330  0.0000315543470973  0.2336497215416246
  0.8332983602214292  0.3333508198892889  0.2336523801593419
  0.1670480674173263  0.6664759662913334  0.2334846266167220
  0.1666841532226175 -0.0000349731119065  0.2336523801593419
  0.1666841532226175  0.3333508198892889  0.2336523801593419
  0.6109739863424377  0.7776406530091020  0.3115798692999554
  0.6109739863424377  0.1113853606484677  0.3115798692999554
  0.6107576936074143  0.4446211531962929  0.3114769169447416
  0.9447186939817963  0.7776406530091020  0.3115798692999554
  0.9445362469001635  0.1112029135668347  0.3115006390824138
  0.9445362469001635  0.4442608395330019  0.3115006390824138
  0.2779544865296286  0.7774243602740786  0.3114769169447416
  0.2775941728663376  0.1112029135668347  0.3115006390824138
  0.2779544865296286  0.4446211531962929  0.3114769169447416
  0.7222222222222214  0.8888888888888857  0.3889308474076101
  0.7218691798266695  0.2227305980559908  0.3894988349868939
  0.7218691798266695  0.5554002221173394  0.3894988349868939
  0.0560639313893265  0.8885358464933338  0.3894988349868939
  0.0555555555555571  0.2222222222222214  0.3896379764454012
  0.0560639313893265  0.5554002221173394  0.3894988349868939
  0.3887335554506682  0.8885358464933338  0.3894988349868939
  0.3887335554506682  0.2227305980559908  0.3894988349868939
  0.3888888888888857  0.5555555555555571  0.3874549042085070
  0.8331665653607143 -0.0001667679726216  0.4661260359664822
  0.8333269411595781  0.3333365294202145  0.4667161854121257
  0.8331665653607143  0.6670002026119074  0.4661260359664822
  0.1666698627535431 -0.0000063921737576  0.4667161854121257
  0.1666698627535431  0.3333365294202145  0.4667161854121257
  0.1653728470752771  0.6673135764623577  0.4666763398359266
  0.5003335359452431 -0.0001667679726216  0.4661260359664822
  0.5006469097956934  0.3320395137419484  0.4666763398359266
  0.5006469097956934  0.6673135764623577  0.4666763398359266
  0.9444603889813807  0.1111270556480518  0.5449350289400018
  0.9444603889813807  0.4444125553705678  0.5449350289400018
  0.9429136772034920  0.7785431613982541  0.5441728664227471
  0.2777458887039035  0.1111270556480518  0.5449350289400018
  0.2775962547733119  0.4442629214399762  0.5450618212256287
  0.2775962547733119  0.7781408237867119  0.5450618212256287
  0.6118764947315898  0.1095803438701636  0.5441728664227471
  0.6114741571200476  0.4442629214399762  0.5450618212256287
  0.6118764947315898  0.7785431613982541  0.5441728664227471
  0.4443293900723009  0.2777731434081379  0.0787244106073489
  0.4445005519323430  0.6111672185990146  0.0779906295417114
  0.4442883854561950  0.9444567481180909  0.0787737707832122
  0.7779458125106813  0.2776706118980517  0.0788067096807585
  0.7777900814514266  0.6109550521228666  0.0787737707832122
  0.7778318779712233  0.9444985446378876  0.0789775404093426
  0.1112302615838243  0.2778969282504887  0.0787332503657593
  0.1111064767414736  0.6109960567389723  0.0787244106073489
  0.1110039452313873  0.9446124791773456  0.0788067096807585
  0.5553601149367868  0.3891752172996318  0.1567190544334554
  0.5555338284102268  0.7222004950768911  0.1568596101652210
  0.5556444566877600  0.0554510364437947  0.1570404951497998
  0.8890171760634293  0.3887465791622445  0.1568944949920582
  0.8887843697771238  0.7223111233544243  0.1570404951497998
  0.8889158811067395  0.0555825477734108  0.1569312906617571
  0.2222894812119427  0.3889561478786070  0.1568081210559532
  0.2225085506329673  0.7220267816034511  0.1567190544334554
  0.2220799124955802  0.0556838427301006  0.1568944949920582
  0.6663416815438542  0.5001090600910036  0.2334910225737216
  0.6667464608451176  0.8334131275117890  0.2338800960090726
  0.6667687461130549  0.1666441585537588  0.2336826975945930
  0.0002803750223293  0.4999334537826207  0.2337391085674528
 -0.0000225081129056  0.8334354127797263  0.2336826975945930
  0.0000658952485144  0.1667325619151786  0.2336457988988020
  0.3336486533398816  0.5003153200065462  0.2337390133441831
  0.3334423934243395  0.8330083482105256  0.2334910225737216
  0.3332667871159564  0.1669470416889936  0.2337391085674528
  0.7777243914326268  0.6109503905859968  0.3116995647868256
  0.7780911079212273  0.9447577745878916  0.3114816427746568
  0.7775830469746603  0.2780804533399595  0.3115127348854070
  0.1113459869288233  0.6110830823859144  0.3114559550803987
  0.1114137866732953  0.9442497136413246  0.3115127348854070
  0.1111978207065968  0.2778644873732611  0.3117290077983854
  0.4444457434685916  0.6111124101352632  0.3114029084403221
  0.4442837239193257  0.9443910580992911  0.3116995647868256
  0.4444164157192431  0.2780126535954875  0.3114559550803987
  0.8891733913009016  0.7223265772966597  0.3895364582503483
  0.8889742620246056  0.0556409286912769  0.3896316054306118
  0.8888729734734317  0.3887485372431265  0.3897005270377841
  0.2223835793839407  0.7217902052843311  0.3891753932051663
  0.2220818705764624  0.0555396401401031  0.3897005270377841
  0.2225555985033839  0.3892222651700482  0.3898513947839108
  0.5551075044436566  0.7217741711103209  0.3896336300361928
  0.5556599106299954  0.0558400579675730  0.3895364582503483
  0.5551235386176668  0.3890502460506052  0.3891753932051663
 -0.0002772211653843  0.8337947033539340  0.4661694141352186
  0.0000380651215766  0.1667047317882409  0.4668132268349225
 -0.0000507296824176  0.4997400153871639  0.4663134899854242
  0.3333571762357331  0.8336054581476005  0.4667357183967761
  0.3330733487204997  0.1666159369842467  0.4663134899854242
  0.3319706135925650  0.4986372802592293  0.4658137815921241
  0.6668005166056866  0.8334671832723580  0.4659576889396381
  0.6671280366872626  0.1663894455012799  0.4661694141352186
  0.6669387914809290  0.5000238429023974  0.4667357183967761
  0.1111758195845933  0.9434033662579351  0.5448395048208775
  0.1112634852166777  0.2779301518833421  0.5452726834703781
  0.1100567196570999  0.6120265278593212  0.5444164722308447
  0.4446872992245295  0.9447691033548907  0.5445671921935100
  0.4453598611926503  0.2767233863237641  0.5444164722308447
  0.4435683805632116  0.6102350472298828  0.5510435444243063
  0.7776908478594975  0.9443575145261618  0.5441160684708370
  0.7767366995912708  0.2778424862512577  0.5448395048208775
  0.7781024366882264  0.6113539658912011  0.5445671921935100
  0.3888888888888857  0.5555555555555571  0.5015186991859836
 
  0.00000000E+00  0.00000000E+00  0.00000000E+00
  0.00000000E+00  0.00000000E+00  0.00000000E+00
  0.00000000E+00  0.00000000E+00  0.00000000E+00
  0.00000000E+00  0.00000000E+00  0.00000000E+00
  0.00000000E+00  0.00000000E+00  0.00000000E+00
  0.00000000E+00  0.00000000E+00  0.00000000E+00
  0.00000000E+00  0.00000000E+00  0.00000000E+00
  0.00000000E+00  0.00000000E+00  0.00000000E+00
  0.00000000E+00  0.00000000E+00  0.00000000E+00
  0.00000000E+00  0.00000000E+00  0.00000000E+00
  0.00000000E+00  0.00000000E+00  0.00000000E+00
  0.00000000E+00  0.00000000E+00  0.00000000E+00
  0.00000000E+00  0.00000000E+00  0.00000000E+00
  0.00000000E+00  0.00000000E+00  0.00000000E+00
  0.00000000E+00  0.00000000E+00  0.00000000E+00
  0.00000000E+00  0.00000000E+00  0.00000000E+00
  0.00000000E+00  0.00000000E+00  0.00000000E+00
  0.00000000E+00  0.00000000E+00  0.00000000E+00
  0.00000000E+00  0.00000000E+00  0.00000000E+00
  0.00000000E+00  0.00000000E+00  0.00000000E+00
  0.00000000E+00  0.00000000E+00  0.00000000E+00
  0.00000000E+00  0.00000000E+00  0.00000000E+00
  0.00000000E+00  0.00000000E+00  0.00000000E+00
  0.00000000E+00  0.00000000E+00  0.00000000E+00
  0.00000000E+00  0.00000000E+00  0.00000000E+00
  0.00000000E+00  0.00000000E+00  0.00000000E+00
  0.00000000E+00  0.00000000E+00  0.00000000E+00
  0.00000000E+00  0.00000000E+00  0.00000000E+00
  0.00000000E+00  0.00000000E+00  0.00000000E+00
  0.00000000E+00  0.00000000E+00  0.00000000E+00
  0.00000000E+00  0.00000000E+00  0.00000000E+00
  0.00000000E+00  0.00000000E+00  0.00000000E+00
  0.00000000E+00  0.00000000E+00  0.00000000E+00
  0.00000000E+00  0.00000000E+00  0.00000000E+00
  0.00000000E+00  0.00000000E+00  0.00000000E+00
  0.00000000E+00  0.00000000E+00  0.00000000E+00
  0.00000000E+00  0.00000000E+00  0.00000000E+00
  0.00000000E+00  0.00000000E+00  0.00000000E+00
  0.00000000E+00  0.00000000E+00  0.00000000E+00
  0.00000000E+00  0.00000000E+00  0.00000000E+00
  0.00000000E+00  0.00000000E+00  0.00000000E+00
  0.00000000E+00  0.00000000E+00  0.00000000E+00
  0.00000000E+00  0.00000000E+00  0.00000000E+00
  0.00000000E+00  0.00000000E+00  0.00000000E+00
  0.00000000E+00  0.00000000E+00  0.00000000E+00
  0.00000000E+00  0.00000000E+00  0.00000000E+00
  0.00000000E+00  0.00000000E+00  0.00000000E+00
  0.00000000E+00  0.00000000E+00  0.00000000E+00
  0.00000000E+00  0.00000000E+00  0.00000000E+00
  0.00000000E+00  0.00000000E+00  0.00000000E+00
  0.00000000E+00  0.00000000E+00  0.00000000E+00
  0.00000000E+00  0.00000000E+00  0.00000000E+00
  0.00000000E+00  0.00000000E+00  0.00000000E+00
  0.00000000E+00  0.00000000E+00  0.00000000E+00
  0.00000000E+00  0.00000000E+00  0.00000000E+00
  0.00000000E+00  0.00000000E+00  0.00000000E+00
  0.00000000E+00  0.00000000E+00  0.00000000E+00
  0.00000000E+00  0.00000000E+00  0.00000000E+00
  0.00000000E+00  0.00000000E+00  0.00000000E+00
  0.00000000E+00  0.00000000E+00  0.00000000E+00
  0.00000000E+00  0.00000000E+00  0.00000000E+00
  0.00000000E+00  0.00000000E+00  0.00000000E+00
  0.00000000E+00  0.00000000E+00  0.00000000E+00
  0.00000000E+00  0.00000000E+00  0.00000000E+00
  0.00000000E+00  0.00000000E+00  0.00000000E+00
  0.00000000E+00  0.00000000E+00  0.00000000E+00
  0.00000000E+00  0.00000000E+00  0.00000000E+00
  0.00000000E+00  0.00000000E+00  0.00000000E+00
  0.00000000E+00  0.00000000E+00  0.00000000E+00
  0.00000000E+00  0.00000000E+00  0.00000000E+00
  0.00000000E+00  0.00000000E+00  0.00000000E+00
  0.00000000E+00  0.00000000E+00  0.00000000E+00
  0.00000000E+00  0.00000000E+00  0.00000000E+00
  0.00000000E+00  0.00000000E+00  0.00000000E+00
  0.00000000E+00  0.00000000E+00  0.00000000E+00
  0.00000000E+00  0.00000000E+00  0.00000000E+00
  0.00000000E+00  0.00000000E+00  0.00000000E+00
  0.00000000E+00  0.00000000E+00  0.00000000E+00
  0.00000000E+00  0.00000000E+00  0.00000000E+00
  0.00000000E+00  0.00000000E+00  0.00000000E+00
  0.00000000E+00  0.00000000E+00  0.00000000E+00
  0.00000000E+00  0.00000000E+00  0.00000000E+00
  0.00000000E+00  0.00000000E+00  0.00000000E+00
  0.00000000E+00  0.00000000E+00  0.00000000E+00
  0.00000000E+00  0.00000000E+00  0.00000000E+00
  0.00000000E+00  0.00000000E+00  0.00000000E+00
  0.00000000E+00  0.00000000E+00  0.00000000E+00
  0.00000000E+00  0.00000000E+00  0.00000000E+00
  0.00000000E+00  0.00000000E+00  0.00000000E+00
  0.00000000E+00  0.00000000E+00  0.00000000E+00
  0.00000000E+00  0.00000000E+00  0.00000000E+00
  0.00000000E+00  0.00000000E+00  0.00000000E+00
  0.00000000E+00  0.00000000E+00  0.00000000E+00
  0.00000000E+00  0.00000000E+00  0.00000000E+00
  0.00000000E+00  0.00000000E+00  0.00000000E+00
  0.00000000E+00  0.00000000E+00  0.00000000E+00
  0.00000000E+00  0.00000000E+00  0.00000000E+00
  0.00000000E+00  0.00000000E+00  0.00000000E+00
  0.00000000E+00  0.00000000E+00  0.00000000E+00
  0.00000000E+00  0.00000000E+00  0.00000000E+00
  0.00000000E+00  0.00000000E+00  0.00000000E+00
  0.00000000E+00  0.00000000E+00  0.00000000E+00
  0.00000000E+00  0.00000000E+00  0.00000000E+00
  0.00000000E+00  0.00000000E+00  0.00000000E+00
  0.00000000E+00  0.00000000E+00  0.00000000E+00
  0.00000000E+00  0.00000000E+00  0.00000000E+00
  0.00000000E+00  0.00000000E+00  0.00000000E+00
  0.00000000E+00  0.00000000E+00  0.00000000E+00
  0.00000000E+00  0.00000000E+00  0.00000000E+00
  0.00000000E+00  0.00000000E+00  0.00000000E+00
  0.00000000E+00  0.00000000E+00  0.00000000E+00
  0.00000000E+00  0.00000000E+00  0.00000000E+00
  0.00000000E+00  0.00000000E+00  0.00000000E+00
  0.00000000E+00  0.00000000E+00  0.00000000E+00
  0.00000000E+00  0.00000000E+00  0.00000000E+00
  0.00000000E+00  0.00000000E+00  0.00000000E+00
  0.00000000E+00  0.00000000E+00  0.00000000E+00
  0.00000000E+00  0.00000000E+00  0.00000000E+00
  0.00000000E+00  0.00000000E+00  0.00000000E+00
  0.00000000E+00  0.00000000E+00  0.00000000E+00
  0.00000000E+00  0.00000000E+00  0.00000000E+00
  0.00000000E+00  0.00000000E+00  0.00000000E+00
  0.00000000E+00  0.00000000E+00  0.00000000E+00
  0.00000000E+00  0.00000000E+00  0.00000000E+00
  0.00000000E+00  0.00000000E+00  0.00000000E+00
  0.00000000E+00  0.00000000E+00  0.00000000E+00
  0.00000000E+00  0.00000000E+00  0.00000000E+00
  0.00000000E+00  0.00000000E+00  0.00000000E+00
  0.00000000E+00  0.00000000E+00  0.00000000E+00
  0.00000000E+00  0.00000000E+00  0.00000000E+00
  0.00000000E+00  0.00000000E+00  0.00000000E+00
  0.00000000E+00  0.00000000E+00  0.00000000E+00
  0.00000000E+00  0.00000000E+00  0.00000000E+00
  0.00000000E+00  0.00000000E+00  0.00000000E+00
  0.00000000E+00  0.00000000E+00  0.00000000E+00
  0.00000000E+00  0.00000000E+00  0.00000000E+00
  0.00000000E+00  0.00000000E+00  0.00000000E+00
  0.00000000E+00  0.00000000E+00  0.00000000E+00
  0.00000000E+00  0.00000000E+00  0.00000000E+00
  0.00000000E+00  0.00000000E+00  0.00000000E+00
  0.00000000E+00  0.00000000E+00  0.00000000E+00
  0.00000000E+00  0.00000000E+00  0.00000000E+00
  0.00000000E+00  0.00000000E+00  0.00000000E+00
  0.00000000E+00  0.00000000E+00  0.00000000E+00
  0.00000000E+00  0.00000000E+00  0.00000000E+00
  0.00000000E+00  0.00000000E+00  0.00000000E+00
  0.00000000E+00  0.00000000E+00  0.00000000E+00
  0.00000000E+00  0.00000000E+00  0.00000000E+00
  0.00000000E+00  0.00000000E+00  0.00000000E+00
  0.00000000E+00  0.00000000E+00  0.00000000E+00
  0.00000000E+00  0.00000000E+00  0.00000000E+00
  0.00000000E+00  0.00000000E+00  0.00000000E+00
  0.00000000E+00  0.00000000E+00  0.00000000E+00
  0.00000000E+00  0.00000000E+00  0.00000000E+00
  0.00000000E+00  0.00000000E+00  0.00000000E+00
  0.00000000E+00  0.00000000E+00  0.00000000E+00
  0.00000000E+00  0.00000000E+00  0.00000000E+00
  0.00000000E+00  0.00000000E+00  0.00000000E+00
  0.00000000E+00  0.00000000E+00  0.00000000E+00
  0.00000000E+00  0.00000000E+00  0.00000000E+00
  0.00000000E+00  0.00000000E+00  0.00000000E+00
  0.00000000E+00  0.00000000E+00  0.00000000E+00
  0.00000000E+00  0.00000000E+00  0.00000000E+00
  0.00000000E+00  0.00000000E+00  0.00000000E+00
  0.00000000E+00  0.00000000E+00  0.00000000E+00
  0.00000000E+00  0.00000000E+00  0.00000000E+00
  0.00000000E+00  0.00000000E+00  0.00000000E+00
  0.00000000E+00  0.00000000E+00  0.00000000E+00
  0.00000000E+00  0.00000000E+00  0.00000000E+00
  0.00000000E+00  0.00000000E+00  0.00000000E+00
  0.00000000E+00  0.00000000E+00  0.00000000E+00
  0.00000000E+00  0.00000000E+00  0.00000000E+00
  0.00000000E+00  0.00000000E+00  0.00000000E+00
  0.00000000E+00  0.00000000E+00  0.00000000E+00
  0.00000000E+00  0.00000000E+00  0.00000000E+00
  0.00000000E+00  0.00000000E+00  0.00000000E+00
  0.00000000E+00  0.00000000E+00  0.00000000E+00
  0.00000000E+00  0.00000000E+00  0.00000000E+00
  0.00000000E+00  0.00000000E+00  0.00000000E+00
  0.00000000E+00  0.00000000E+00  0.00000000E+00
  0.00000000E+00  0.00000000E+00  0.00000000E+00
  0.00000000E+00  0.00000000E+00  0.00000000E+00
  0.00000000E+00  0.00000000E+00  0.00000000E+00
  0.00000000E+00  0.00000000E+00  0.00000000E+00
  0.00000000E+00  0.00000000E+00  0.00000000E+00
  0.00000000E+00  0.00000000E+00  0.00000000E+00
  0.00000000E+00  0.00000000E+00  0.00000000E+00
  0.00000000E+00  0.00000000E+00  0.00000000E+00
  0.00000000E+00  0.00000000E+00  0.00000000E+00
  0.00000000E+00  0.00000000E+00  0.00000000E+00
  0.00000000E+00  0.00000000E+00  0.00000000E+00
  0.00000000E+00  0.00000000E+00  0.00000000E+00
  0.00000000E+00  0.00000000E+00  0.00000000E+00
  0.00000000E+00  0.00000000E+00  0.00000000E+00
  0.00000000E+00  0.00000000E+00  0.00000000E+00
  0.00000000E+00  0.00000000E+00  0.00000000E+00
  0.00000000E+00  0.00000000E+00  0.00000000E+00
  0.00000000E+00  0.00000000E+00  0.00000000E+00
  0.00000000E+00  0.00000000E+00  0.00000000E+00
  0.00000000E+00  0.00000000E+00  0.00000000E+00
  0.00000000E+00  0.00000000E+00  0.00000000E+00
  0.00000000E+00  0.00000000E+00  0.00000000E+00
  0.00000000E+00  0.00000000E+00  0.00000000E+00
  0.00000000E+00  0.00000000E+00  0.00000000E+00
  0.00000000E+00  0.00000000E+00  0.00000000E+00
  0.00000000E+00  0.00000000E+00  0.00000000E+00
  0.00000000E+00  0.00000000E+00  0.00000000E+00
  0.00000000E+00  0.00000000E+00  0.00000000E+00
  0.00000000E+00  0.00000000E+00  0.00000000E+00
  0.00000000E+00  0.00000000E+00  0.00000000E+00
  0.00000000E+00  0.00000000E+00  0.00000000E+00
  0.00000000E+00  0.00000000E+00  0.00000000E+00
  0.00000000E+00  0.00000000E+00  0.00000000E+00
  0.00000000E+00  0.00000000E+00  0.00000000E+00
  0.00000000E+00  0.00000000E+00  0.00000000E+00
  0.00000000E+00  0.00000000E+00  0.00000000E+00
  0.00000000E+00  0.00000000E+00  0.00000000E+00
  0.00000000E+00  0.00000000E+00  0.00000000E+00
  0.00000000E+00  0.00000000E+00  0.00000000E+00
  0.00000000E+00  0.00000000E+00  0.00000000E+00
  0.00000000E+00  0.00000000E+00  0.00000000E+00
  0.00000000E+00  0.00000000E+00  0.00000000E+00
  0.00000000E+00  0.00000000E+00  0.00000000E+00
  0.00000000E+00  0.00000000E+00  0.00000000E+00
  0.00000000E+00  0.00000000E+00  0.00000000E+00
  0.00000000E+00  0.00000000E+00  0.00000000E+00
  0.00000000E+00  0.00000000E+00  0.00000000E+00
  0.00000000E+00  0.00000000E+00  0.00000000E+00
  0.00000000E+00  0.00000000E+00  0.00000000E+00
  0.00000000E+00  0.00000000E+00  0.00000000E+00
  0.00000000E+00  0.00000000E+00  0.00000000E+00
  0.00000000E+00  0.00000000E+00  0.00000000E+00
  0.00000000E+00  0.00000000E+00  0.00000000E+00
  0.00000000E+00  0.00000000E+00  0.00000000E+00
  0.00000000E+00  0.00000000E+00  0.00000000E+00
  0.00000000E+00  0.00000000E+00  0.00000000E+00
  0.00000000E+00  0.00000000E+00  0.00000000E+00
  0.00000000E+00  0.00000000E+00  0.00000000E+00
  0.00000000E+00  0.00000000E+00  0.00000000E+00
  0.00000000E+00  0.00000000E+00  0.00000000E+00
  0.00000000E+00  0.00000000E+00  0.00000000E+00
  0.00000000E+00  0.00000000E+00  0.00000000E+00
  0.00000000E+00  0.00000000E+00  0.00000000E+00
  0.00000000E+00  0.00000000E+00  0.00000000E+00
  0.00000000E+00  0.00000000E+00  0.00000000E+00
  0.00000000E+00  0.00000000E+00  0.00000000E+00
  0.00000000E+00  0.00000000E+00  0.00000000E+00
  0.00000000E+00  0.00000000E+00  0.00000000E+00
  0.00000000E+00  0.00000000E+00  0.00000000E+00
  0.00000000E+00  0.00000000E+00  0.00000000E+00
  0.00000000E+00  0.00000000E+00  0.00000000E+00
  0.00000000E+00  0.00000000E+00  0.00000000E+00
  0.00000000E+00  0.00000000E+00  0.00000000E+00
