New structure                           
   1.00000000000000     
     0.0000000000000000  -17.1805734624895479    0.0000000000000000
     0.0000000000000000   -8.5902867312447739  -14.8788130701007191
    30.0000000000000000    0.0000000000000000    0.0000000000000000
   Al   N 
   252     2
Direct
  0.4484103280392062  0.6146236243461587  0.5485834472499447
  0.6174360455222733  0.4407574536226643  0.5435935588476486
  0.7801803957668948  0.2756733292180548  0.5446141461726000
  0.9448367810434303  0.1111763718102345  0.5447356369468618
  0.9453187816616414  0.2770842726671032  0.5452388027920363
  0.9443311677114190  0.4437747734630489  0.5446117951398077
  0.7775441390848672  0.6111287752427440  0.5448465295314888
  0.6114140649351735  0.7779137816464419  0.5447618601867650
  0.4445622353314891  0.9439945954686447  0.5448669920963521
  0.6112689042880691  0.9439377816329491  0.5446495713132540
  0.7777599384210833  0.9441698140130317  0.5446280355263390
  0.9431550414555765  0.7782302929324867  0.5448697311536996
  0.9435457793041141  0.6112700020431463  0.5449105069071726
  0.8329521303650868  0.6669805934208772  0.4663521914122819
  0.6667016728806594  0.8332551427635948  0.4662131274269093
  0.7222600656906818  0.8888474043711807  0.3896397305278169
  0.8890373884302175  0.7223443038308405  0.3897316529974459
  0.9443400368694116  0.7779150992697655  0.3117141188740397
  0.7779905343493525  0.9446143489053673  0.3118253685780826
  0.9447251795783796  0.9442688277004334  0.3115961912282600
  0.8891084696146229  0.8886336324900070  0.3897581778999925
  0.8331289306185320  0.8333495225708992  0.4662460776682695
  0.7774576128190390  0.7778015838752134  0.5446326094808150
  0.7799796201277309  0.4435320873305587  0.5445269675918595
  0.6705673796310384  0.4992168603005102  0.4658594201452377
  0.8354832895721881  0.3321393518222116  0.4662942826003921
  0.8893309205691904  0.3885735351503269  0.3893943508529206
  0.7227289025577841  0.5557026784845208  0.3891071870729469
  0.7776399127522010  0.6111751627946996  0.3115225062057432
  0.6112653958076096  0.7779414442059853  0.3115986255662241
  0.6668203917260938  0.8335246279324982  0.2337851809272101
  0.8332116424663242  0.6670714793162952  0.2336369423222339
  0.8886916598301456  0.7224657872957392  0.1568306088786783
  0.7222445863225646  0.8889071733324191  0.1568673934784978
  0.7781208446424231  0.9447690042092722  0.0786233719620197
  0.9443379457698303  0.7778070411675351  0.0787274344311198
  0.9444369107163174  0.9442764480446324  0.0787706587640830
  0.8886914374638195  0.8888873292195767  0.1568361426584138
  0.8331256558017063  0.8335009266309397  0.2338224611141449
  0.7780386693246387  0.7775354601301306  0.3117733625727552
  0.7219354552165396  0.7223672367969585  0.3896312446422796
  0.6671409736123457  0.6665277167522367  0.4664045391939904
  0.5556232473509333  0.7221791953346840  0.3895837039405157
  0.4999869746756604  0.8336185123827590  0.4664153251636479
  0.3327721790790781  0.8369507674110147  0.4658802081127209
  0.2744747471896208  0.7836631918339561  0.5436154486476404
  0.1093360682230435  0.9464836036870901  0.5446089316228714
  0.2771004856421876  0.9463136457483494  0.5445505038368931
  0.4433602422379030  0.7797658409313917  0.5457563374004690
  0.5010822465004403  0.6674505841176429  0.4675190839690146
  0.6134318965574929  0.6097545707447789  0.5457595253082136
  0.6108554216305040  0.9447010404433487  0.3117845185614144
  0.4444772546773287  0.9442938687946064  0.3115379458999126
  0.3890757633621055  0.8892790130778769  0.3891183272699721
  0.3882009236532402  0.7241660308379135  0.3889743487208224
  0.2207590057163699  0.7242457729795760  0.3890792617056784
  0.0549238389349844  0.8894027712397614  0.3892321153306428
 -0.0005082927462177  0.8337778405488108  0.4665710429659247
  0.1643671655923587  0.6673812509246874  0.4677893723052709
  0.2691898370180531  0.6143594537301378  0.5486876329704453
  0.1088688758490677  0.6097743259256887  0.5461319307689859
  0.2741400899604202  0.4404588019328672  0.5436716367501737
  0.4433957171604213  0.2751521933125806  0.5461355673587790
  0.6118067463245482  0.1095213501320585  0.5449251000783744
  0.6673605522766033  0.1658654504172523  0.4665820660347005
  0.8333590111892160 -0.0002285227529178  0.4664263711893796
  0.8889456049471999  0.0554038180062236  0.3894810757028042
  0.7229546270925221  0.2213683739670471  0.3892528006074403
  0.7779541060849224  0.2774811552567538  0.3112346460341559
  0.6117511444931665  0.4441240828795910  0.3112915170379246
  0.6664270591922805  0.5003025398379231  0.2335979311990738
  0.5000129437318069  0.6667008669403157  0.2335060779339768
  0.5557414304171957  0.7224387873709592  0.1569268960640931
  0.3889748151537406  0.8890001331120448  0.1568232340800224
  0.3336152643050594  0.8331074436995923  0.2336061103047284
  0.2775231428109999  0.7783357145230988  0.3112922562076211
  0.1108512203418281  0.9445692098869956  0.3112393963004251
  0.2780164621699061  0.9445534060936059  0.3111965923521555
  0.2214328708418382  0.8904229904562136  0.3890846241048714
  0.1633178020884917  0.8369602907067552  0.4659880948795275
  0.1093844286347195  0.7799387987369529  0.5459744137711886
  0.9447623822964832  0.6111099446987297  0.3115952070079120
  0.9445655632214868  0.4443640194673625  0.3114710430274923
  0.9443216350832599  0.2778945198061025  0.3117511509150568
  0.9445739288904904  0.1112014835114273  0.3115251449851953
  0.8332716129410533  0.1664122082191062  0.2338313247590676
  0.6668345440070110  0.1663915148138273  0.2338341282182514
  0.5000625788991299  0.3333689488926209  0.2336108698829254
  0.5556065463916440  0.3889432841161719  0.1568511698943450
  0.3888940879351934  0.5555835899284487  0.1570107897140584
  0.4443830005262489  0.6110882916929279  0.0785410811905187
  0.6112125460106094  0.4443545427412497  0.0787521694440230
  0.7779635051998304  0.2776823898741148  0.0789082386016169
  0.7223246256531567  0.2220475392962052  0.1568698157073388
  0.7222260407265657  0.0553488961548574  0.1568385480129549
  0.8889130738309416  0.0555734046884456  0.1569940841739599
  0.8331516125513732  0.9998346510594003  0.2336661033463641
  0.7776722697640980  0.1113187438381811  0.3116058884984895
  0.6112867183145859  0.1109504806997357  0.3117286640198129
  0.5557567527511579  0.0555740723922054  0.3897629756777092
  0.5003610648285541 -0.0005206666150719  0.4663890535502923
  0.3331838752180888  0.1653823257670519  0.4664890758022576
  0.1654854934509904  0.3320033177728870  0.4664065205352060
  0.9988634034494006  0.4997657380133147  0.4664429412897684
  0.0548045148169720  0.5556839259572430  0.3893189158332672
  0.2214216753415501  0.3879313114021487  0.3893035006879436
  0.2775514234211016  0.4441350988040880  0.3113917418762698
  0.1114244266135657  0.6111956506344701  0.3114763378948715
  0.1667389176672309  0.6667141900415133  0.2335980372021292
  0.9997488171350150  0.8334891043244433  0.2338293204106722
  0.0553725661735420  0.8890065017520566  0.1568677967822140
  0.2222686620020948  0.7223069894981440  0.1568463116616990
  0.2776613709593672  0.7779274656698175  0.0787513417853170
  0.1109880450853595  0.9446794194473751  0.0789147989834445
  0.2776168793815380  0.9447015911576492  0.0788895397346485
  0.4445782661562899  0.9442772764594576  0.0787414399924275
  0.6111434015135293  0.7777995237075916  0.0786855785397670
  0.7776150543758160  0.6112314690784070  0.0787364363126656
  0.7223117928643628  0.5556606770315879  0.1568159445974155
  0.8332807086707196  0.5004196955797315  0.2337753470243535
  0.8888749210764438  0.3889759803637532  0.1570489262410775
  0.8334613078173528  0.3333311794394901  0.2336945930171460
  0.7222912930513203  0.3888756251704601  0.1570216192090954
  0.6664407529216467  0.3333199261557138  0.2336341634169286
  0.6108889503866682  0.2780028095024281  0.3114809950695864
  0.5557656895705282  0.2218665569250163  0.3898036418304560
  0.4445887156722513  0.2779884797480574  0.3114999545347641
  0.3882128854000866  0.3871468535388015  0.3891441852324549
  0.5010128546687641  0.3307304587097152  0.4678334045722860
  0.3278195918271352  0.4941281431512395  0.4676352239355654
  0.3888876784621119  0.5553030087123330  0.3878401274061609
  0.4445225490202270  0.6110931664737526  0.3117160622615006
  0.2777646123515536  0.6110872992227006  0.3118404252376119
  0.3335538396934790  0.5002001193561971  0.2336386576271514
  0.1667238492720391  0.5003226185419654  0.2336842691487264
 -0.0001933242697194  0.5003870151241585  0.2338232174184046
  0.1666608436526636  0.3333302429993815  0.2337420939258940
  0.2222298289107252  0.3888889076973877  0.1570915970669109
  0.3889838755307576  0.2220927287855714  0.1569001658028095
  0.5557931149857480  0.0553541624551518  0.1568366676327742
  0.5003833813908704  0.9998983163935454  0.2336518377871809
  0.3337144129656701  0.1664671602047478  0.2338330760859582
  0.2780175611536424  0.2775827075009853  0.3113085818068413
  0.1112421487318750  0.2779031208716736  0.3117463114948636
  0.0556107141350693  0.2222438164614531  0.3892476648178684
  0.0004432949439313  0.1669066199268279  0.4665682381316163
  0.1656695985951437  0.0019024585231453  0.4662970277578686
  0.2219210196171206  0.0559137324871924  0.3894117336533046
  0.2776719502596534  0.1112249557501795  0.3114836308315044
  0.3891928112216670  0.0552567504511298  0.3894595056420188
  0.3891180241828240  0.2213080113642603  0.3893555628562464
  0.5000973685732146  0.1657050430737485  0.4666160267862754
  0.4447120654612163  0.1099888229843671  0.5449623858675503
  0.2772135040614279  0.1107868117757592  0.5446480452490149
  0.1104542045175855  0.2769595678289618  0.5451888080224019
  0.2769751865898898  0.2752879217708738  0.5447825064350728
  0.1088343850277423  0.4434629642958806  0.5447513466736487
  0.1629712668881161  0.4992068106486570  0.4661164262528680
  0.3327654830376257  0.3293915382726774  0.4661264226343221
  0.4997293092555098  0.5001590121487736  0.2335635082681218
  0.4445502655691696  0.4442875381844169  0.3118462544358952
  0.7221293299463045  0.0555882393997559  0.3897749109311915
  0.6668425389637904 -0.0003884597018830  0.4662760706070958
  0.8341059083560626  0.4998376046159014  0.4663538595422926
  0.8886688531042712  0.5558830995363927  0.3894280190007064
  0.4442135769924491  0.7777806183710594  0.0790155716887999
  0.3887901610090701  0.7222822276819862  0.1568112517394797
  0.3334906751006858  0.6664066012490788  0.2335599570775324
  0.1666557154526415  0.8331135292673189  0.2336428056546982
  0.1114449870527349  0.7774566389415090  0.3114686118262605
  0.0554044419654722  0.7222457710522754  0.3897651109523945
 -0.0007209647631373  0.6665555730397354  0.4665948550199441
  0.6110878958362203  0.6108967819986129  0.0790168199560018
  0.5555745072488586  0.5554916567258886  0.1568123170532985
  0.2221923946496631  0.8889892911554766  0.1570268223831132
  0.7779933386665212  0.4443059327032371  0.0788787052869968
  0.9444994437008360  0.4443726705812349  0.0787795540018980
  0.9444680018406737  0.6112305284448210  0.0787813818169466
  0.8889308960387741  0.5555375104137026  0.1569611013537232
  0.7222213201934986  0.7224760013410308  0.1568053729237248
  0.6668210965640522  0.6668770721111923  0.2337508650793314
  0.6108090228326437  0.6111910215325183  0.3113532132307605
  0.5576961493122754  0.5546728474884111  0.3889757500790452
  0.5108747268706236  0.4941928232323962  0.4674686428989130
  0.5578160306513560  0.3871700928539557  0.3890810517519928
  0.7239378715343000  0.3879536530630596  0.3890843952471018
  0.6706336294216982  0.3296601886979625  0.4659680652814858
  0.6137417509325809  0.2756062013480088  0.5459735427186040
  0.7781519878133402  0.1104186918866299  0.5449620774774904
  0.8345945565494914  0.1656491543444593  0.4664584218119989
  0.8895090707184864  0.2221139345229471  0.3894577938223083
  0.9441297350237718  0.2779437039214537  0.0790655270254473
  0.9444527131674277  0.1111384716928477  0.0788502832536675
  0.8888700469584073  0.2222368598833825  0.1570793789879303
  0.5001836129496495  0.8335154014215703  0.2337562982014483
  0.4445353095868078  0.7774415296281780  0.3113542172256983
  0.7781200638799273  0.7770493020952632  0.0786235640218633
  0.6104033938689128  0.9447658503374603  0.0786252408823095
  0.5557948272927613  0.8888959918222573  0.1568091735920219
  0.7776161957608515  0.1110850405974264  0.0787787009276619
  0.6111681770268356  0.1109629031163034  0.0787378037566702
  0.4442721662279580  0.2779418953001878  0.0791207846701317
  0.2777392485444655  0.4444032629820124  0.0788533095870255
  0.1112992871543987  0.6109223982146846  0.0791155044866725
  0.0554273798166061  0.5556528273954423  0.1568899276434063
  0.0551997287587608  0.7224371894730856  0.1569974067548434
  0.9997590467720269  0.6668805592564871  0.2338191932793933
  0.6111130778296706  0.2779246967949811  0.0790725147735472
  0.5557586596763991  0.2218671049695053  0.1570092895256541
  0.5002179074840070  0.1664010135191417  0.2338298628044207
  0.4444359086618127  0.1114030110913748  0.3116253573926235
  0.3888508525351080  0.3889763271724078  0.1569139608933348
  0.3336642486606136  0.3333788211812503  0.2336846686677424
  0.4444408418077549  0.4444312525962706  0.0785812841224200
  0.2777684998700501  0.6111210316100015  0.0785859967225917
  0.2223152717902057  0.5555160080801980  0.1569089850498580
  0.1112691150818265  0.7777915393850904  0.0790668702148633
  0.6668225508324040  0.9997879703214219  0.2338247168227351
  0.7779130218681451  0.4446692968239846  0.3111880301309715
  0.1109652461841324  0.4446478741332475  0.3112981017357930
  0.0554759172540601  0.3885449708443458  0.3894338552552780
  0.0001758009527826  0.3326817024348011  0.4664798083476662
  0.1661130839990866  0.1666957598430450  0.4664944542230707
  0.1106669829230364  0.1117029682915182  0.5452517942473500
  0.5557134803267769  0.8885272609744503  0.3896473265634970
  0.2207299482721953  0.5546452334358326  0.3891409325678226
  0.2218938781411748  0.2220646953929971  0.3894476251210758
  0.3278869441085103  0.6772064686866308  0.4674609197498131
  0.3332434687246070  0.0006323208479084  0.4663773277966493
  0.4482397122631210  0.4352691264067504  0.5487555166045852
  0.1110656109763513  0.4443377417265720  0.0789232383212771
  0.1112863584533113  0.2779613345207282  0.0790410862867690
  0.0555719111252431  0.2222670180357580  0.1571205963046733
  0.0000059503290269  0.1666927919629070  0.2337826737002537
  0.1666419471537409  0.0001633287576309  0.2336998859260424
  0.2222993129805623  0.0555526190867859  0.1570568747254783
  0.2777114655979260  0.1111699019921592  0.0787988720500859
  0.3888680615874246  0.0555964297933856  0.1569718322583431
  0.3337334727061664 -0.0000299328952806  0.2337851906697941
  0.1667371649579137  0.1666862175964564  0.2337687977813982
  0.1112241765202017  0.1109857927922457  0.3117626687439210
  0.0555863297299751  0.0560094466002132  0.3894604847164099
  0.9992424657491850  0.0009980205232948  0.4664403303275799
  0.2776755236124078  0.2777352882919892  0.0789296158102012
  0.2222886495664658  0.2222300211438898  0.1570645573404305
  0.0555506514509961  0.3889647811716625  0.1570615724980525
  0.0000003001634782  0.3334273979361282  0.2337636747435168
  0.4445934997781890  0.1110974098157415  0.0787956109375036
  0.1112594231541201  0.1108222055687635  0.0790772080906006
  0.0555507353381088  0.0555511546835215  0.1570815871567061
 -0.0002613332417162 -0.0000525781641711  0.2338307998364242
  0.9441457856728017  0.9444473210266863  0.5449373891407462
  0.3887758929573277  0.5551448174618632  0.4514629137298841
  0.3887189182238024  0.5548154886676411  0.5659594239765676
 
  0.00000000E+00  0.00000000E+00  0.00000000E+00
  0.00000000E+00  0.00000000E+00  0.00000000E+00
  0.00000000E+00  0.00000000E+00  0.00000000E+00
  0.00000000E+00  0.00000000E+00  0.00000000E+00
  0.00000000E+00  0.00000000E+00  0.00000000E+00
  0.00000000E+00  0.00000000E+00  0.00000000E+00
  0.00000000E+00  0.00000000E+00  0.00000000E+00
  0.00000000E+00  0.00000000E+00  0.00000000E+00
  0.00000000E+00  0.00000000E+00  0.00000000E+00
  0.00000000E+00  0.00000000E+00  0.00000000E+00
  0.00000000E+00  0.00000000E+00  0.00000000E+00
  0.00000000E+00  0.00000000E+00  0.00000000E+00
  0.00000000E+00  0.00000000E+00  0.00000000E+00
  0.00000000E+00  0.00000000E+00  0.00000000E+00
  0.00000000E+00  0.00000000E+00  0.00000000E+00
  0.00000000E+00  0.00000000E+00  0.00000000E+00
  0.00000000E+00  0.00000000E+00  0.00000000E+00
  0.00000000E+00  0.00000000E+00  0.00000000E+00
  0.00000000E+00  0.00000000E+00  0.00000000E+00
  0.00000000E+00  0.00000000E+00  0.00000000E+00
  0.00000000E+00  0.00000000E+00  0.00000000E+00
  0.00000000E+00  0.00000000E+00  0.00000000E+00
  0.00000000E+00  0.00000000E+00  0.00000000E+00
  0.00000000E+00  0.00000000E+00  0.00000000E+00
  0.00000000E+00  0.00000000E+00  0.00000000E+00
  0.00000000E+00  0.00000000E+00  0.00000000E+00
  0.00000000E+00  0.00000000E+00  0.00000000E+00
  0.00000000E+00  0.00000000E+00  0.00000000E+00
  0.00000000E+00  0.00000000E+00  0.00000000E+00
  0.00000000E+00  0.00000000E+00  0.00000000E+00
  0.00000000E+00  0.00000000E+00  0.00000000E+00
  0.00000000E+00  0.00000000E+00  0.00000000E+00
  0.00000000E+00  0.00000000E+00  0.00000000E+00
  0.00000000E+00  0.00000000E+00  0.00000000E+00
  0.00000000E+00  0.00000000E+00  0.00000000E+00
  0.00000000E+00  0.00000000E+00  0.00000000E+00
  0.00000000E+00  0.00000000E+00  0.00000000E+00
  0.00000000E+00  0.00000000E+00  0.00000000E+00
  0.00000000E+00  0.00000000E+00  0.00000000E+00
  0.00000000E+00  0.00000000E+00  0.00000000E+00
  0.00000000E+00  0.00000000E+00  0.00000000E+00
  0.00000000E+00  0.00000000E+00  0.00000000E+00
  0.00000000E+00  0.00000000E+00  0.00000000E+00
  0.00000000E+00  0.00000000E+00  0.00000000E+00
  0.00000000E+00  0.00000000E+00  0.00000000E+00
  0.00000000E+00  0.00000000E+00  0.00000000E+00
  0.00000000E+00  0.00000000E+00  0.00000000E+00
  0.00000000E+00  0.00000000E+00  0.00000000E+00
  0.00000000E+00  0.00000000E+00  0.00000000E+00
  0.00000000E+00  0.00000000E+00  0.00000000E+00
  0.00000000E+00  0.00000000E+00  0.00000000E+00
  0.00000000E+00  0.00000000E+00  0.00000000E+00
  0.00000000E+00  0.00000000E+00  0.00000000E+00
  0.00000000E+00  0.00000000E+00  0.00000000E+00
  0.00000000E+00  0.00000000E+00  0.00000000E+00
  0.00000000E+00  0.00000000E+00  0.00000000E+00
  0.00000000E+00  0.00000000E+00  0.00000000E+00
  0.00000000E+00  0.00000000E+00  0.00000000E+00
  0.00000000E+00  0.00000000E+00  0.00000000E+00
  0.00000000E+00  0.00000000E+00  0.00000000E+00
  0.00000000E+00  0.00000000E+00  0.00000000E+00
  0.00000000E+00  0.00000000E+00  0.00000000E+00
  0.00000000E+00  0.00000000E+00  0.00000000E+00
  0.00000000E+00  0.00000000E+00  0.00000000E+00
  0.00000000E+00  0.00000000E+00  0.00000000E+00
  0.00000000E+00  0.00000000E+00  0.00000000E+00
  0.00000000E+00  0.00000000E+00  0.00000000E+00
  0.00000000E+00  0.00000000E+00  0.00000000E+00
  0.00000000E+00  0.00000000E+00  0.00000000E+00
  0.00000000E+00  0.00000000E+00  0.00000000E+00
  0.00000000E+00  0.00000000E+00  0.00000000E+00
  0.00000000E+00  0.00000000E+00  0.00000000E+00
  0.00000000E+00  0.00000000E+00  0.00000000E+00
  0.00000000E+00  0.00000000E+00  0.00000000E+00
  0.00000000E+00  0.00000000E+00  0.00000000E+00
  0.00000000E+00  0.00000000E+00  0.00000000E+00
  0.00000000E+00  0.00000000E+00  0.00000000E+00
  0.00000000E+00  0.00000000E+00  0.00000000E+00
  0.00000000E+00  0.00000000E+00  0.00000000E+00
  0.00000000E+00  0.00000000E+00  0.00000000E+00
  0.00000000E+00  0.00000000E+00  0.00000000E+00
  0.00000000E+00  0.00000000E+00  0.00000000E+00
  0.00000000E+00  0.00000000E+00  0.00000000E+00
  0.00000000E+00  0.00000000E+00  0.00000000E+00
  0.00000000E+00  0.00000000E+00  0.00000000E+00
  0.00000000E+00  0.00000000E+00  0.00000000E+00
  0.00000000E+00  0.00000000E+00  0.00000000E+00
  0.00000000E+00  0.00000000E+00  0.00000000E+00
  0.00000000E+00  0.00000000E+00  0.00000000E+00
  0.00000000E+00  0.00000000E+00  0.00000000E+00
  0.00000000E+00  0.00000000E+00  0.00000000E+00
  0.00000000E+00  0.00000000E+00  0.00000000E+00
  0.00000000E+00  0.00000000E+00  0.00000000E+00
  0.00000000E+00  0.00000000E+00  0.00000000E+00
  0.00000000E+00  0.00000000E+00  0.00000000E+00
  0.00000000E+00  0.00000000E+00  0.00000000E+00
  0.00000000E+00  0.00000000E+00  0.00000000E+00
  0.00000000E+00  0.00000000E+00  0.00000000E+00
  0.00000000E+00  0.00000000E+00  0.00000000E+00
  0.00000000E+00  0.00000000E+00  0.00000000E+00
  0.00000000E+00  0.00000000E+00  0.00000000E+00
  0.00000000E+00  0.00000000E+00  0.00000000E+00
  0.00000000E+00  0.00000000E+00  0.00000000E+00
  0.00000000E+00  0.00000000E+00  0.00000000E+00
  0.00000000E+00  0.00000000E+00  0.00000000E+00
  0.00000000E+00  0.00000000E+00  0.00000000E+00
  0.00000000E+00  0.00000000E+00  0.00000000E+00
  0.00000000E+00  0.00000000E+00  0.00000000E+00
  0.00000000E+00  0.00000000E+00  0.00000000E+00
  0.00000000E+00  0.00000000E+00  0.00000000E+00
  0.00000000E+00  0.00000000E+00  0.00000000E+00
  0.00000000E+00  0.00000000E+00  0.00000000E+00
  0.00000000E+00  0.00000000E+00  0.00000000E+00
  0.00000000E+00  0.00000000E+00  0.00000000E+00
  0.00000000E+00  0.00000000E+00  0.00000000E+00
  0.00000000E+00  0.00000000E+00  0.00000000E+00
  0.00000000E+00  0.00000000E+00  0.00000000E+00
  0.00000000E+00  0.00000000E+00  0.00000000E+00
  0.00000000E+00  0.00000000E+00  0.00000000E+00
  0.00000000E+00  0.00000000E+00  0.00000000E+00
  0.00000000E+00  0.00000000E+00  0.00000000E+00
  0.00000000E+00  0.00000000E+00  0.00000000E+00
  0.00000000E+00  0.00000000E+00  0.00000000E+00
  0.00000000E+00  0.00000000E+00  0.00000000E+00
  0.00000000E+00  0.00000000E+00  0.00000000E+00
  0.00000000E+00  0.00000000E+00  0.00000000E+00
  0.00000000E+00  0.00000000E+00  0.00000000E+00
  0.00000000E+00  0.00000000E+00  0.00000000E+00
  0.00000000E+00  0.00000000E+00  0.00000000E+00
  0.00000000E+00  0.00000000E+00  0.00000000E+00
  0.00000000E+00  0.00000000E+00  0.00000000E+00
  0.00000000E+00  0.00000000E+00  0.00000000E+00
  0.00000000E+00  0.00000000E+00  0.00000000E+00
  0.00000000E+00  0.00000000E+00  0.00000000E+00
  0.00000000E+00  0.00000000E+00  0.00000000E+00
  0.00000000E+00  0.00000000E+00  0.00000000E+00
  0.00000000E+00  0.00000000E+00  0.00000000E+00
  0.00000000E+00  0.00000000E+00  0.00000000E+00
  0.00000000E+00  0.00000000E+00  0.00000000E+00
  0.00000000E+00  0.00000000E+00  0.00000000E+00
  0.00000000E+00  0.00000000E+00  0.00000000E+00
  0.00000000E+00  0.00000000E+00  0.00000000E+00
  0.00000000E+00  0.00000000E+00  0.00000000E+00
  0.00000000E+00  0.00000000E+00  0.00000000E+00
  0.00000000E+00  0.00000000E+00  0.00000000E+00
  0.00000000E+00  0.00000000E+00  0.00000000E+00
  0.00000000E+00  0.00000000E+00  0.00000000E+00
  0.00000000E+00  0.00000000E+00  0.00000000E+00
  0.00000000E+00  0.00000000E+00  0.00000000E+00
  0.00000000E+00  0.00000000E+00  0.00000000E+00
  0.00000000E+00  0.00000000E+00  0.00000000E+00
  0.00000000E+00  0.00000000E+00  0.00000000E+00
  0.00000000E+00  0.00000000E+00  0.00000000E+00
  0.00000000E+00  0.00000000E+00  0.00000000E+00
  0.00000000E+00  0.00000000E+00  0.00000000E+00
  0.00000000E+00  0.00000000E+00  0.00000000E+00
  0.00000000E+00  0.00000000E+00  0.00000000E+00
  0.00000000E+00  0.00000000E+00  0.00000000E+00
  0.00000000E+00  0.00000000E+00  0.00000000E+00
  0.00000000E+00  0.00000000E+00  0.00000000E+00
  0.00000000E+00  0.00000000E+00  0.00000000E+00
  0.00000000E+00  0.00000000E+00  0.00000000E+00
  0.00000000E+00  0.00000000E+00  0.00000000E+00
  0.00000000E+00  0.00000000E+00  0.00000000E+00
  0.00000000E+00  0.00000000E+00  0.00000000E+00
  0.00000000E+00  0.00000000E+00  0.00000000E+00
  0.00000000E+00  0.00000000E+00  0.00000000E+00
  0.00000000E+00  0.00000000E+00  0.00000000E+00
  0.00000000E+00  0.00000000E+00  0.00000000E+00
  0.00000000E+00  0.00000000E+00  0.00000000E+00
  0.00000000E+00  0.00000000E+00  0.00000000E+00
  0.00000000E+00  0.00000000E+00  0.00000000E+00
  0.00000000E+00  0.00000000E+00  0.00000000E+00
  0.00000000E+00  0.00000000E+00  0.00000000E+00
  0.00000000E+00  0.00000000E+00  0.00000000E+00
  0.00000000E+00  0.00000000E+00  0.00000000E+00
  0.00000000E+00  0.00000000E+00  0.00000000E+00
  0.00000000E+00  0.00000000E+00  0.00000000E+00
  0.00000000E+00  0.00000000E+00  0.00000000E+00
  0.00000000E+00  0.00000000E+00  0.00000000E+00
  0.00000000E+00  0.00000000E+00  0.00000000E+00
  0.00000000E+00  0.00000000E+00  0.00000000E+00
  0.00000000E+00  0.00000000E+00  0.00000000E+00
  0.00000000E+00  0.00000000E+00  0.00000000E+00
  0.00000000E+00  0.00000000E+00  0.00000000E+00
  0.00000000E+00  0.00000000E+00  0.00000000E+00
  0.00000000E+00  0.00000000E+00  0.00000000E+00
  0.00000000E+00  0.00000000E+00  0.00000000E+00
  0.00000000E+00  0.00000000E+00  0.00000000E+00
  0.00000000E+00  0.00000000E+00  0.00000000E+00
  0.00000000E+00  0.00000000E+00  0.00000000E+00
  0.00000000E+00  0.00000000E+00  0.00000000E+00
  0.00000000E+00  0.00000000E+00  0.00000000E+00
  0.00000000E+00  0.00000000E+00  0.00000000E+00
  0.00000000E+00  0.00000000E+00  0.00000000E+00
  0.00000000E+00  0.00000000E+00  0.00000000E+00
  0.00000000E+00  0.00000000E+00  0.00000000E+00
  0.00000000E+00  0.00000000E+00  0.00000000E+00
  0.00000000E+00  0.00000000E+00  0.00000000E+00
  0.00000000E+00  0.00000000E+00  0.00000000E+00
  0.00000000E+00  0.00000000E+00  0.00000000E+00
  0.00000000E+00  0.00000000E+00  0.00000000E+00
  0.00000000E+00  0.00000000E+00  0.00000000E+00
  0.00000000E+00  0.00000000E+00  0.00000000E+00
  0.00000000E+00  0.00000000E+00  0.00000000E+00
  0.00000000E+00  0.00000000E+00  0.00000000E+00
  0.00000000E+00  0.00000000E+00  0.00000000E+00
  0.00000000E+00  0.00000000E+00  0.00000000E+00
  0.00000000E+00  0.00000000E+00  0.00000000E+00
  0.00000000E+00  0.00000000E+00  0.00000000E+00
  0.00000000E+00  0.00000000E+00  0.00000000E+00
  0.00000000E+00  0.00000000E+00  0.00000000E+00
  0.00000000E+00  0.00000000E+00  0.00000000E+00
  0.00000000E+00  0.00000000E+00  0.00000000E+00
  0.00000000E+00  0.00000000E+00  0.00000000E+00
  0.00000000E+00  0.00000000E+00  0.00000000E+00
  0.00000000E+00  0.00000000E+00  0.00000000E+00
  0.00000000E+00  0.00000000E+00  0.00000000E+00
  0.00000000E+00  0.00000000E+00  0.00000000E+00
  0.00000000E+00  0.00000000E+00  0.00000000E+00
  0.00000000E+00  0.00000000E+00  0.00000000E+00
  0.00000000E+00  0.00000000E+00  0.00000000E+00
  0.00000000E+00  0.00000000E+00  0.00000000E+00
  0.00000000E+00  0.00000000E+00  0.00000000E+00
  0.00000000E+00  0.00000000E+00  0.00000000E+00
  0.00000000E+00  0.00000000E+00  0.00000000E+00
  0.00000000E+00  0.00000000E+00  0.00000000E+00
  0.00000000E+00  0.00000000E+00  0.00000000E+00
  0.00000000E+00  0.00000000E+00  0.00000000E+00
  0.00000000E+00  0.00000000E+00  0.00000000E+00
  0.00000000E+00  0.00000000E+00  0.00000000E+00
  0.00000000E+00  0.00000000E+00  0.00000000E+00
  0.00000000E+00  0.00000000E+00  0.00000000E+00
  0.00000000E+00  0.00000000E+00  0.00000000E+00
  0.00000000E+00  0.00000000E+00  0.00000000E+00
  0.00000000E+00  0.00000000E+00  0.00000000E+00
  0.00000000E+00  0.00000000E+00  0.00000000E+00
  0.00000000E+00  0.00000000E+00  0.00000000E+00
  0.00000000E+00  0.00000000E+00  0.00000000E+00
  0.00000000E+00  0.00000000E+00  0.00000000E+00
  0.00000000E+00  0.00000000E+00  0.00000000E+00
  0.00000000E+00  0.00000000E+00  0.00000000E+00
  0.00000000E+00  0.00000000E+00  0.00000000E+00
  0.00000000E+00  0.00000000E+00  0.00000000E+00
  0.00000000E+00  0.00000000E+00  0.00000000E+00
  0.00000000E+00  0.00000000E+00  0.00000000E+00
  0.00000000E+00  0.00000000E+00  0.00000000E+00
  0.00000000E+00  0.00000000E+00  0.00000000E+00
  0.00000000E+00  0.00000000E+00  0.00000000E+00
  0.00000000E+00  0.00000000E+00  0.00000000E+00
  0.00000000E+00  0.00000000E+00  0.00000000E+00
  0.00000000E+00  0.00000000E+00  0.00000000E+00
  0.00000000E+00  0.00000000E+00  0.00000000E+00
  0.00000000E+00  0.00000000E+00  0.00000000E+00
