New structure                           
   1.00000000000000     
    16.1980000000000004    0.0000000000000000    0.0000000000000000
     0.0000000000000000   16.1980000000000004    0.0000000000000000
     0.0000000000000000    0.0000000000000000   16.1980000000000004
   Al   N 
   256     1
Direct
 -0.0187592191920629  0.0000000000000000  0.0000000000000000
 -0.0022378429457657  0.1273539451748257  0.1273539451748257
  0.1248404574453106  0.0000000000000000  0.1230630645713364
  0.1248404574453106  0.1230630645713364  0.0000000000000000
  0.0005497685458241  0.0000000000000000  0.2488520430476785
  0.0003224278105194  0.1247240530872258  0.3746267814167588
  0.1247247805913417  0.0000000000000000  0.3736436257095580
  0.1250790918028114  0.1245315686231833  0.2493867572734178
  0.0006115800483229  0.0000000000000000  0.5000000000000000
  0.0003224278105194  0.1247240530872258  0.6253732185832411
  0.1247247805913417  0.0000000000000000  0.6263563742904417
  0.1249079274116303  0.1244962763263660  0.5000000000000000
  0.0005497685458241  0.0000000000000000  0.7511479569523215
 -0.0022378429457657  0.1273539451748257  0.8726460548251743
  0.1248404574453106  0.0000000000000000  0.8769369354286638
  0.1250790918028114  0.1245315686231833  0.7506132427265820
  0.0005497685458241  0.2488520430476785  0.0000000000000000
  0.0003224278105194  0.3746267814167588  0.1247240530872258
  0.1250790918028114  0.2493867572734178  0.1245315686231833
  0.1247247805913417  0.3736436257095580  0.0000000000000000
  0.0005745122947380  0.2500999929592677  0.2500999929592677
  0.0001133909677866  0.3750996913483644  0.3750996913483644
  0.1248838348804669  0.2494774218636981  0.3747090120070021
  0.1248838348804669  0.3747090120070021  0.2494774218636981
  0.0004629752435245  0.2496416513863990  0.5000000000000000
  0.0001133909677866  0.3750996913483644  0.6249003086516357
  0.1248838348804669  0.2494774218636981  0.6252909879929981
  0.1251142495669950  0.3750695370037719  0.5000000000000000
  0.0005745122947380  0.2500999929592677  0.7499000070407323
  0.0003224278105194  0.3746267814167588  0.8752759469127743
  0.1250790918028114  0.2493867572734178  0.8754684313768167
  0.1248838348804669  0.3747090120070021  0.7505225781363016
  0.0006115800483229  0.5000000000000000  0.0000000000000000
  0.0003224278105194  0.6253732185832411  0.1247240530872258
  0.1249079274116303  0.5000000000000000  0.1244962763263660
  0.1247247805913417  0.6263563742904417  0.0000000000000000
  0.0004629752435245  0.5000000000000000  0.2496416513863990
  0.0001133909677866  0.6249003086516357  0.3750996913483644
  0.1251142495669950  0.5000000000000000  0.3750695370037719
  0.1248838348804669  0.6252909879929981  0.2494774218636981
 -0.0001019733265818  0.5000000000000000  0.5000000000000000
  0.0001133909677866  0.6249003086516357  0.6249003086516357
  0.1251142495669950  0.5000000000000000  0.6249304629962272
  0.1251142495669950  0.6249304629962272  0.5000000000000000
  0.0004629752435245  0.5000000000000000  0.7503583486136010
  0.0003224278105194  0.6253732185832411  0.8752759469127743
  0.1249079274116303  0.5000000000000000  0.8755037236736339
  0.1248838348804669  0.6252909879929981  0.7505225781363016
  0.0005497685458241  0.7511479569523215  0.0000000000000000
 -0.0022378429457657  0.8726460548251743  0.1273539451748257
  0.1250790918028114  0.7506132427265820  0.1245315686231833
  0.1248404574453106  0.8769369354286638  0.0000000000000000
  0.0005745122947380  0.7499000070407323  0.2500999929592677
  0.0003224278105194  0.8752759469127743  0.3746267814167588
  0.1248838348804669  0.7505225781363016  0.3747090120070021
  0.1250790918028114  0.8754684313768167  0.2493867572734178
  0.0004629752435245  0.7503583486136010  0.5000000000000000
  0.0003224278105194  0.8752759469127743  0.6253732185832411
  0.1248838348804669  0.7505225781363016  0.6252909879929981
  0.1249079274116303  0.8755037236736339  0.5000000000000000
  0.0005745122947380  0.7499000070407323  0.7499000070407323
 -0.0022378429457657  0.8726460548251743  0.8726460548251743
  0.1250790918028114  0.7506132427265820  0.8754684313768167
  0.1250790918028114  0.8754684313768167  0.7506132427265820
  0.2620387706622306  0.0000000000000000  0.0000000000000000
  0.2494967745062322  0.1228055058493411  0.1228055058493411
  0.3784304588910554  0.0000000000000000  0.1260090516162450
  0.3784304588910554  0.1260090516162450  0.0000000000000000
  0.2500082055537026  0.0000000000000000  0.2496842056918819
  0.2495383583794111  0.1246904545157769  0.3748290304299108
  0.3742776567904681  0.0000000000000000  0.3746991758749761
  0.3746462771960674  0.1250099535800837  0.2494651536050605
  0.2494340884483879  0.0000000000000000  0.5000000000000000
  0.2495383583794111  0.1246904545157769  0.6251709695700891
  0.3742776567904681  0.0000000000000000  0.6253008241250241
  0.3741260143946427  0.1248645146171559  0.5000000000000000
  0.2500082055537026  0.0000000000000000  0.7503157943081182
  0.2494967745062322  0.1228055058493411  0.8771944941506591
  0.3784304588910554  0.0000000000000000  0.8739909483837547
  0.3746462771960674  0.1250099535800837  0.7505348463949394
  0.2500082055537026  0.2496842056918819  0.0000000000000000
  0.2495383583794111  0.3748290304299108  0.1246904545157769
  0.3746462771960674  0.2494651536050605  0.1250099535800837
  0.3742776567904681  0.3746991758749761  0.0000000000000000
  0.2494988517213497  0.2490982026492138  0.2490982026492138
  0.2497652134958238  0.3747531755368563  0.3747531755368563
  0.3744112166320777  0.2498727559338627  0.3749069835726818
  0.3744112166320777  0.3749069835726818  0.2498727559338627
  0.2495353518909678  0.2495375066776928  0.5000000000000000
  0.2497652134958238  0.3747531755368563  0.6252468244631441
  0.3744112166320777  0.2498727559338627  0.6250930164273178
  0.3743605129249942  0.3747782638594779  0.5000000000000000
  0.2494988517213497  0.2490982026492138  0.7509017973507861
  0.2495383583794111  0.3748290304299108  0.8753095454842231
  0.3746462771960674  0.2494651536050605  0.8749900464199161
  0.3744112166320777  0.3749069835726818  0.7501272440661374
  0.2494340884483879  0.5000000000000000  0.0000000000000000
  0.2495383583794111  0.6251709695700891  0.1246904545157769
  0.3741260143946427  0.5000000000000000  0.1248645146171559
  0.3742776567904681  0.6253008241250241  0.0000000000000000
  0.2495353518909678  0.5000000000000000  0.2495375066776928
  0.2497652134958238  0.6252468244631441  0.3747531755368563
  0.3743605129249942  0.5000000000000000  0.3747782638594779
  0.3744112166320777  0.6250930164273178  0.2498727559338627
  0.2501792529635923  0.5000000000000000  0.5000000000000000
  0.2497652134958238  0.6252468244631441  0.6252468244631441
  0.3743605129249942  0.5000000000000000  0.6252217361405223
  0.3743605129249942  0.6252217361405223  0.5000000000000000
  0.2495353518909678  0.5000000000000000  0.7504624933223071
  0.2495383583794111  0.6251709695700891  0.8753095454842231
  0.3741260143946427  0.5000000000000000  0.8751354853828441
  0.3744112166320777  0.6250930164273178  0.7501272440661374
  0.2500082055537026  0.7503157943081182  0.0000000000000000
  0.2494967745062322  0.8771944941506591  0.1228055058493411
  0.3746462771960674  0.7505348463949394  0.1250099535800837
  0.3784304588910554  0.8739909483837547  0.0000000000000000
  0.2494988517213497  0.7509017973507861  0.2490982026492138
  0.2495383583794111  0.8753095454842231  0.3748290304299108
  0.3744112166320777  0.7501272440661374  0.3749069835726818
  0.3746462771960674  0.8749900464199161  0.2494651536050605
  0.2495353518909678  0.7504624933223071  0.5000000000000000
  0.2495383583794111  0.8753095454842231  0.6251709695700891
  0.3744112166320777  0.7501272440661374  0.6250930164273178
  0.3741260143946427  0.8751354853828441  0.5000000000000000
  0.2494988517213497  0.7509017973507861  0.7509017973507861
  0.2494967745062322  0.8771944941506591  0.8771944941506591
  0.3746462771960674  0.7505348463949394  0.8749900464199161
  0.3746462771960674  0.8749900464199161  0.7505348463949394
  0.5018174551980188  0.0000000000000000  0.0000000000000000
  0.5011167527220464  0.1251691846156058  0.1251691846156058
  0.6260806943003496  0.0000000000000000  0.1250431947467750
  0.6260806943003496  0.1250431947467750  0.0000000000000000
  0.5002902375750344  0.0000000000000000  0.2503770555100561
  0.4993856512853275  0.1250950100872820  0.3748371990395781
  0.6248113396513991  0.0000000000000000  0.3756104855016606
  0.6248490689523969  0.1251963194966094  0.2501423589835702
  0.4995790565928898  0.0000000000000000  0.5000000000000000
  0.4993856512853275  0.1250950100872820  0.6251628009604218
  0.6248113396513991  0.0000000000000000  0.6243895144983395
  0.6247494385610866  0.1252171324324471  0.5000000000000000
  0.5002902375750344  0.0000000000000000  0.7496229444899438
  0.5011167527220464  0.1251691846156058  0.8748308153843942
  0.6260806943003496  0.0000000000000000  0.8749568052532248
  0.6248490689523969  0.1251963194966094  0.7498576410164297
  0.5002902375750344  0.2503770555100561  0.0000000000000000
  0.4993856512853275  0.3748371990395781  0.1250950100872820
  0.6248490689523969  0.2501423589835702  0.1251963194966094
  0.6248113396513991  0.3756104855016606  0.0000000000000000
  0.4996434953930304  0.2500345387453985  0.2500345387453985
  0.4995845961673317  0.3750321349357219  0.3750321349357219
  0.6246806251791414  0.2500160929552743  0.3749753838782520
  0.6246806251791414  0.3749753838782520  0.2500160929552743
  0.4994741707797746  0.2496936651481051  0.5000000000000000
  0.4995845961673317  0.3750321349357219  0.6249678650642780
  0.6246806251791414  0.2500160929552743  0.6250246161217478
  0.6248136334301665  0.3750225831039956  0.5000000000000000
  0.4996434953930304  0.2500345387453985  0.7499654612546012
  0.4993856512853275  0.3748371990395781  0.8749049899127181
  0.6248490689523969  0.2501423589835702  0.8748036805033907
  0.6246806251791414  0.3749753838782520  0.7499839070447256
  0.4995790565928898  0.5000000000000000  0.0000000000000000
  0.4993856512853275  0.6251628009604218  0.1250950100872820
  0.6247494385610866  0.5000000000000000  0.1252171324324471
  0.6248113396513991  0.6243895144983395  0.0000000000000000
  0.4994741707797746  0.5000000000000000  0.2496936651481051
  0.4995845961673317  0.6249678650642780  0.3750321349357219
  0.6248136334301665  0.5000000000000000  0.3750225831039956
  0.6246806251791414  0.6250246161217478  0.2500160929552743
  0.4993681932799172  0.5000000000000000  0.5000000000000000
  0.4995845961673317  0.6249678650642780  0.6249678650642780
  0.6248136334301665  0.5000000000000000  0.6249774168960045
  0.6248136334301665  0.6249774168960045  0.5000000000000000
  0.4994741707797746  0.5000000000000000  0.7503063348518950
  0.4993856512853275  0.6251628009604218  0.8749049899127181
  0.6247494385610866  0.5000000000000000  0.8747828675675526
  0.6246806251791414  0.6250246161217478  0.7499839070447256
  0.5002902375750344  0.7496229444899438  0.0000000000000000
  0.5011167527220464  0.8748308153843942  0.1251691846156058
  0.6248490689523969  0.7498576410164297  0.1251963194966094
  0.6260806943003496  0.8749568052532248  0.0000000000000000
  0.4996434953930304  0.7499654612546012  0.2500345387453985
  0.4993856512853275  0.8749049899127181  0.3748371990395781
  0.6246806251791414  0.7499839070447256  0.3749753838782520
  0.6248490689523969  0.8748036805033907  0.2501423589835702
  0.4994741707797746  0.7503063348518950  0.5000000000000000
  0.4993856512853275  0.8749049899127181  0.6251628009604218
  0.6246806251791414  0.7499839070447256  0.6250246161217478
  0.6247494385610866  0.8747828675675526  0.5000000000000000
  0.4996434953930304  0.7499654612546012  0.7499654612546012
  0.5011167527220464  0.8748308153843942  0.8748308153843942
  0.6248490689523969  0.7498576410164297  0.8748036805033907
  0.6248490689523969  0.8748036805033907  0.7498576410164297
  0.7514115102378257  0.0000000000000000  0.0000000000000000
  0.7498152904807612  0.1251946826716808  0.1251946826716808
  0.8727887624845949  0.0000000000000000  0.1277145752136439
  0.8727887624845949  0.1277145752136439  0.0000000000000000
  0.7489293015064926  0.0000000000000000  0.2510816534402915
  0.7497160556714626  0.1251573147716488  0.3755411448852181
  0.8754828784304738  0.0000000000000000  0.3751031764673279
  0.8747562523633614  0.1248089600868013  0.2507132877371125
  0.7500637517788087  0.0000000000000000  0.5000000000000000
  0.7497160556714626  0.1251573147716488  0.6244588551147819
  0.8754828784304738  0.0000000000000000  0.6248968235326720
  0.8753661199265184  0.1250084303417470  0.5000000000000000
  0.7489293015064926  0.0000000000000000  0.7489183465597085
  0.7498152904807612  0.1251946826716808  0.8748053173283191
  0.8727887624845949  0.0000000000000000  0.8722854247863562
  0.8747562523633614  0.1248089600868013  0.7492867122628875
  0.7489293015064926  0.2510816534402915  0.0000000000000000
  0.7497160556714626  0.3755411448852181  0.1251573147716488
  0.8747562523633614  0.2507132877371125  0.1248089600868013
  0.8754828784304738  0.3751031764673279  0.0000000000000000
  0.7501997608943040  0.2499524780830414  0.2499524780830414
  0.7500975979360412  0.3749979462363553  0.3749979462363553
  0.8752749558357186  0.2500151462196377  0.3750318713808209
  0.8752749558357186  0.3750318713808209  0.2500151462196377
  0.7500284380201546  0.2502624032393804  0.5000000000000000
  0.7500975979360412  0.3749979462363553  0.6250020537636446
  0.8752749558357186  0.2500151462196377  0.6249681286191794
  0.8752195608499491  0.3750069511284959  0.5000000000000000
  0.7501997608943040  0.2499524780830414  0.7500475219169587
  0.7497160556714626  0.3755411448852181  0.8748426852283510
  0.8747562523633614  0.2507132877371125  0.8751910399131986
  0.8752749558357186  0.3750318713808209  0.7499848537803626
  0.7500637517788087  0.5000000000000000  0.0000000000000000
  0.7497160556714626  0.6244588551147819  0.1251573147716488
  0.8753661199265184  0.5000000000000000  0.1250084303417470
  0.8754828784304738  0.6248968235326720  0.0000000000000000
  0.7500284380201546  0.5000000000000000  0.2502624032393804
  0.7500975979360412  0.6250020537636446  0.3749979462363553
  0.8752195608499491  0.5000000000000000  0.3750069511284959
  0.8752749558357186  0.6249681286191794  0.2500151462196377
  0.7499551569557210  0.5000000000000000  0.5000000000000000
  0.7500975979360412  0.6250020537636446  0.6250020537636446
  0.8752195608499491  0.5000000000000000  0.6249930488715042
  0.8752195608499491  0.6249930488715042  0.5000000000000000
  0.7500284380201546  0.5000000000000000  0.7497375967606196
  0.7497160556714626  0.6244588551147819  0.8748426852283510
  0.8753661199265184  0.5000000000000000  0.8749915696582530
  0.8752749558357186  0.6249681286191794  0.7499848537803626
  0.7489293015064926  0.7489183465597085  0.0000000000000000
  0.7498152904807612  0.8748053173283191  0.1251946826716808
  0.8747562523633614  0.7492867122628875  0.1248089600868013
  0.8727887624845949  0.8722854247863562  0.0000000000000000
  0.7501997608943040  0.7500475219169587  0.2499524780830414
  0.7497160556714626  0.8748426852283510  0.3755411448852181
  0.8752749558357186  0.7499848537803626  0.3750318713808209
  0.8747562523633614  0.8751910399131986  0.2507132877371125
  0.7500284380201546  0.7497375967606196  0.5000000000000000
  0.7497160556714626  0.8748426852283510  0.6244588551147819
  0.8752749558357186  0.7499848537803626  0.6249681286191794
  0.8753661199265184  0.8749915696582530  0.5000000000000000
  0.7501997608943040  0.7500475219169587  0.7500475219169587
  0.7498152904807612  0.8748053173283191  0.8748053173283191
  0.8747562523633614  0.7492867122628875  0.8751910399131986
  0.8747562523633614  0.8751910399131986  0.7492867122628875
  0.0986980579739122  0.0000000000000000  0.0000000000000000
 
  0.00000000E+00  0.00000000E+00  0.00000000E+00
  0.00000000E+00  0.00000000E+00  0.00000000E+00
  0.00000000E+00  0.00000000E+00  0.00000000E+00
  0.00000000E+00  0.00000000E+00  0.00000000E+00
  0.00000000E+00  0.00000000E+00  0.00000000E+00
  0.00000000E+00  0.00000000E+00  0.00000000E+00
  0.00000000E+00  0.00000000E+00  0.00000000E+00
  0.00000000E+00  0.00000000E+00  0.00000000E+00
  0.00000000E+00  0.00000000E+00  0.00000000E+00
  0.00000000E+00  0.00000000E+00  0.00000000E+00
  0.00000000E+00  0.00000000E+00  0.00000000E+00
  0.00000000E+00  0.00000000E+00  0.00000000E+00
  0.00000000E+00  0.00000000E+00  0.00000000E+00
  0.00000000E+00  0.00000000E+00  0.00000000E+00
  0.00000000E+00  0.00000000E+00  0.00000000E+00
  0.00000000E+00  0.00000000E+00  0.00000000E+00
  0.00000000E+00  0.00000000E+00  0.00000000E+00
  0.00000000E+00  0.00000000E+00  0.00000000E+00
  0.00000000E+00  0.00000000E+00  0.00000000E+00
  0.00000000E+00  0.00000000E+00  0.00000000E+00
  0.00000000E+00  0.00000000E+00  0.00000000E+00
  0.00000000E+00  0.00000000E+00  0.00000000E+00
  0.00000000E+00  0.00000000E+00  0.00000000E+00
  0.00000000E+00  0.00000000E+00  0.00000000E+00
  0.00000000E+00  0.00000000E+00  0.00000000E+00
  0.00000000E+00  0.00000000E+00  0.00000000E+00
  0.00000000E+00  0.00000000E+00  0.00000000E+00
  0.00000000E+00  0.00000000E+00  0.00000000E+00
  0.00000000E+00  0.00000000E+00  0.00000000E+00
  0.00000000E+00  0.00000000E+00  0.00000000E+00
  0.00000000E+00  0.00000000E+00  0.00000000E+00
  0.00000000E+00  0.00000000E+00  0.00000000E+00
  0.00000000E+00  0.00000000E+00  0.00000000E+00
  0.00000000E+00  0.00000000E+00  0.00000000E+00
  0.00000000E+00  0.00000000E+00  0.00000000E+00
  0.00000000E+00  0.00000000E+00  0.00000000E+00
  0.00000000E+00  0.00000000E+00  0.00000000E+00
  0.00000000E+00  0.00000000E+00  0.00000000E+00
  0.00000000E+00  0.00000000E+00  0.00000000E+00
  0.00000000E+00  0.00000000E+00  0.00000000E+00
  0.00000000E+00  0.00000000E+00  0.00000000E+00
  0.00000000E+00  0.00000000E+00  0.00000000E+00
  0.00000000E+00  0.00000000E+00  0.00000000E+00
  0.00000000E+00  0.00000000E+00  0.00000000E+00
  0.00000000E+00  0.00000000E+00  0.00000000E+00
  0.00000000E+00  0.00000000E+00  0.00000000E+00
  0.00000000E+00  0.00000000E+00  0.00000000E+00
  0.00000000E+00  0.00000000E+00  0.00000000E+00
  0.00000000E+00  0.00000000E+00  0.00000000E+00
  0.00000000E+00  0.00000000E+00  0.00000000E+00
  0.00000000E+00  0.00000000E+00  0.00000000E+00
  0.00000000E+00  0.00000000E+00  0.00000000E+00
  0.00000000E+00  0.00000000E+00  0.00000000E+00
  0.00000000E+00  0.00000000E+00  0.00000000E+00
  0.00000000E+00  0.00000000E+00  0.00000000E+00
  0.00000000E+00  0.00000000E+00  0.00000000E+00
  0.00000000E+00  0.00000000E+00  0.00000000E+00
  0.00000000E+00  0.00000000E+00  0.00000000E+00
  0.00000000E+00  0.00000000E+00  0.00000000E+00
  0.00000000E+00  0.00000000E+00  0.00000000E+00
  0.00000000E+00  0.00000000E+00  0.00000000E+00
  0.00000000E+00  0.00000000E+00  0.00000000E+00
  0.00000000E+00  0.00000000E+00  0.00000000E+00
  0.00000000E+00  0.00000000E+00  0.00000000E+00
  0.00000000E+00  0.00000000E+00  0.00000000E+00
  0.00000000E+00  0.00000000E+00  0.00000000E+00
  0.00000000E+00  0.00000000E+00  0.00000000E+00
  0.00000000E+00  0.00000000E+00  0.00000000E+00
  0.00000000E+00  0.00000000E+00  0.00000000E+00
  0.00000000E+00  0.00000000E+00  0.00000000E+00
  0.00000000E+00  0.00000000E+00  0.00000000E+00
  0.00000000E+00  0.00000000E+00  0.00000000E+00
  0.00000000E+00  0.00000000E+00  0.00000000E+00
  0.00000000E+00  0.00000000E+00  0.00000000E+00
  0.00000000E+00  0.00000000E+00  0.00000000E+00
  0.00000000E+00  0.00000000E+00  0.00000000E+00
  0.00000000E+00  0.00000000E+00  0.00000000E+00
  0.00000000E+00  0.00000000E+00  0.00000000E+00
  0.00000000E+00  0.00000000E+00  0.00000000E+00
  0.00000000E+00  0.00000000E+00  0.00000000E+00
  0.00000000E+00  0.00000000E+00  0.00000000E+00
  0.00000000E+00  0.00000000E+00  0.00000000E+00
  0.00000000E+00  0.00000000E+00  0.00000000E+00
  0.00000000E+00  0.00000000E+00  0.00000000E+00
  0.00000000E+00  0.00000000E+00  0.00000000E+00
  0.00000000E+00  0.00000000E+00  0.00000000E+00
  0.00000000E+00  0.00000000E+00  0.00000000E+00
  0.00000000E+00  0.00000000E+00  0.00000000E+00
  0.00000000E+00  0.00000000E+00  0.00000000E+00
  0.00000000E+00  0.00000000E+00  0.00000000E+00
  0.00000000E+00  0.00000000E+00  0.00000000E+00
  0.00000000E+00  0.00000000E+00  0.00000000E+00
  0.00000000E+00  0.00000000E+00  0.00000000E+00
  0.00000000E+00  0.00000000E+00  0.00000000E+00
  0.00000000E+00  0.00000000E+00  0.00000000E+00
  0.00000000E+00  0.00000000E+00  0.00000000E+00
  0.00000000E+00  0.00000000E+00  0.00000000E+00
  0.00000000E+00  0.00000000E+00  0.00000000E+00
  0.00000000E+00  0.00000000E+00  0.00000000E+00
  0.00000000E+00  0.00000000E+00  0.00000000E+00
  0.00000000E+00  0.00000000E+00  0.00000000E+00
  0.00000000E+00  0.00000000E+00  0.00000000E+00
  0.00000000E+00  0.00000000E+00  0.00000000E+00
  0.00000000E+00  0.00000000E+00  0.00000000E+00
  0.00000000E+00  0.00000000E+00  0.00000000E+00
  0.00000000E+00  0.00000000E+00  0.00000000E+00
  0.00000000E+00  0.00000000E+00  0.00000000E+00
  0.00000000E+00  0.00000000E+00  0.00000000E+00
  0.00000000E+00  0.00000000E+00  0.00000000E+00
  0.00000000E+00  0.00000000E+00  0.00000000E+00
  0.00000000E+00  0.00000000E+00  0.00000000E+00
  0.00000000E+00  0.00000000E+00  0.00000000E+00
  0.00000000E+00  0.00000000E+00  0.00000000E+00
  0.00000000E+00  0.00000000E+00  0.00000000E+00
  0.00000000E+00  0.00000000E+00  0.00000000E+00
  0.00000000E+00  0.00000000E+00  0.00000000E+00
  0.00000000E+00  0.00000000E+00  0.00000000E+00
  0.00000000E+00  0.00000000E+00  0.00000000E+00
  0.00000000E+00  0.00000000E+00  0.00000000E+00
  0.00000000E+00  0.00000000E+00  0.00000000E+00
  0.00000000E+00  0.00000000E+00  0.00000000E+00
  0.00000000E+00  0.00000000E+00  0.00000000E+00
  0.00000000E+00  0.00000000E+00  0.00000000E+00
  0.00000000E+00  0.00000000E+00  0.00000000E+00
  0.00000000E+00  0.00000000E+00  0.00000000E+00
  0.00000000E+00  0.00000000E+00  0.00000000E+00
  0.00000000E+00  0.00000000E+00  0.00000000E+00
  0.00000000E+00  0.00000000E+00  0.00000000E+00
  0.00000000E+00  0.00000000E+00  0.00000000E+00
  0.00000000E+00  0.00000000E+00  0.00000000E+00
  0.00000000E+00  0.00000000E+00  0.00000000E+00
  0.00000000E+00  0.00000000E+00  0.00000000E+00
  0.00000000E+00  0.00000000E+00  0.00000000E+00
  0.00000000E+00  0.00000000E+00  0.00000000E+00
  0.00000000E+00  0.00000000E+00  0.00000000E+00
  0.00000000E+00  0.00000000E+00  0.00000000E+00
  0.00000000E+00  0.00000000E+00  0.00000000E+00
  0.00000000E+00  0.00000000E+00  0.00000000E+00
  0.00000000E+00  0.00000000E+00  0.00000000E+00
  0.00000000E+00  0.00000000E+00  0.00000000E+00
  0.00000000E+00  0.00000000E+00  0.00000000E+00
  0.00000000E+00  0.00000000E+00  0.00000000E+00
  0.00000000E+00  0.00000000E+00  0.00000000E+00
  0.00000000E+00  0.00000000E+00  0.00000000E+00
  0.00000000E+00  0.00000000E+00  0.00000000E+00
  0.00000000E+00  0.00000000E+00  0.00000000E+00
  0.00000000E+00  0.00000000E+00  0.00000000E+00
  0.00000000E+00  0.00000000E+00  0.00000000E+00
  0.00000000E+00  0.00000000E+00  0.00000000E+00
  0.00000000E+00  0.00000000E+00  0.00000000E+00
  0.00000000E+00  0.00000000E+00  0.00000000E+00
  0.00000000E+00  0.00000000E+00  0.00000000E+00
  0.00000000E+00  0.00000000E+00  0.00000000E+00
  0.00000000E+00  0.00000000E+00  0.00000000E+00
  0.00000000E+00  0.00000000E+00  0.00000000E+00
  0.00000000E+00  0.00000000E+00  0.00000000E+00
  0.00000000E+00  0.00000000E+00  0.00000000E+00
  0.00000000E+00  0.00000000E+00  0.00000000E+00
  0.00000000E+00  0.00000000E+00  0.00000000E+00
  0.00000000E+00  0.00000000E+00  0.00000000E+00
  0.00000000E+00  0.00000000E+00  0.00000000E+00
  0.00000000E+00  0.00000000E+00  0.00000000E+00
  0.00000000E+00  0.00000000E+00  0.00000000E+00
  0.00000000E+00  0.00000000E+00  0.00000000E+00
  0.00000000E+00  0.00000000E+00  0.00000000E+00
  0.00000000E+00  0.00000000E+00  0.00000000E+00
  0.00000000E+00  0.00000000E+00  0.00000000E+00
  0.00000000E+00  0.00000000E+00  0.00000000E+00
  0.00000000E+00  0.00000000E+00  0.00000000E+00
  0.00000000E+00  0.00000000E+00  0.00000000E+00
  0.00000000E+00  0.00000000E+00  0.00000000E+00
  0.00000000E+00  0.00000000E+00  0.00000000E+00
  0.00000000E+00  0.00000000E+00  0.00000000E+00
  0.00000000E+00  0.00000000E+00  0.00000000E+00
  0.00000000E+00  0.00000000E+00  0.00000000E+00
  0.00000000E+00  0.00000000E+00  0.00000000E+00
  0.00000000E+00  0.00000000E+00  0.00000000E+00
  0.00000000E+00  0.00000000E+00  0.00000000E+00
  0.00000000E+00  0.00000000E+00  0.00000000E+00
  0.00000000E+00  0.00000000E+00  0.00000000E+00
  0.00000000E+00  0.00000000E+00  0.00000000E+00
  0.00000000E+00  0.00000000E+00  0.00000000E+00
  0.00000000E+00  0.00000000E+00  0.00000000E+00
  0.00000000E+00  0.00000000E+00  0.00000000E+00
  0.00000000E+00  0.00000000E+00  0.00000000E+00
  0.00000000E+00  0.00000000E+00  0.00000000E+00
  0.00000000E+00  0.00000000E+00  0.00000000E+00
  0.00000000E+00  0.00000000E+00  0.00000000E+00
  0.00000000E+00  0.00000000E+00  0.00000000E+00
  0.00000000E+00  0.00000000E+00  0.00000000E+00
  0.00000000E+00  0.00000000E+00  0.00000000E+00
  0.00000000E+00  0.00000000E+00  0.00000000E+00
  0.00000000E+00  0.00000000E+00  0.00000000E+00
  0.00000000E+00  0.00000000E+00  0.00000000E+00
  0.00000000E+00  0.00000000E+00  0.00000000E+00
  0.00000000E+00  0.00000000E+00  0.00000000E+00
  0.00000000E+00  0.00000000E+00  0.00000000E+00
  0.00000000E+00  0.00000000E+00  0.00000000E+00
  0.00000000E+00  0.00000000E+00  0.00000000E+00
  0.00000000E+00  0.00000000E+00  0.00000000E+00
  0.00000000E+00  0.00000000E+00  0.00000000E+00
  0.00000000E+00  0.00000000E+00  0.00000000E+00
  0.00000000E+00  0.00000000E+00  0.00000000E+00
  0.00000000E+00  0.00000000E+00  0.00000000E+00
  0.00000000E+00  0.00000000E+00  0.00000000E+00
  0.00000000E+00  0.00000000E+00  0.00000000E+00
  0.00000000E+00  0.00000000E+00  0.00000000E+00
  0.00000000E+00  0.00000000E+00  0.00000000E+00
  0.00000000E+00  0.00000000E+00  0.00000000E+00
  0.00000000E+00  0.00000000E+00  0.00000000E+00
  0.00000000E+00  0.00000000E+00  0.00000000E+00
  0.00000000E+00  0.00000000E+00  0.00000000E+00
  0.00000000E+00  0.00000000E+00  0.00000000E+00
  0.00000000E+00  0.00000000E+00  0.00000000E+00
  0.00000000E+00  0.00000000E+00  0.00000000E+00
  0.00000000E+00  0.00000000E+00  0.00000000E+00
  0.00000000E+00  0.00000000E+00  0.00000000E+00
  0.00000000E+00  0.00000000E+00  0.00000000E+00
  0.00000000E+00  0.00000000E+00  0.00000000E+00
  0.00000000E+00  0.00000000E+00  0.00000000E+00
  0.00000000E+00  0.00000000E+00  0.00000000E+00
  0.00000000E+00  0.00000000E+00  0.00000000E+00
  0.00000000E+00  0.00000000E+00  0.00000000E+00
  0.00000000E+00  0.00000000E+00  0.00000000E+00
  0.00000000E+00  0.00000000E+00  0.00000000E+00
  0.00000000E+00  0.00000000E+00  0.00000000E+00
  0.00000000E+00  0.00000000E+00  0.00000000E+00
  0.00000000E+00  0.00000000E+00  0.00000000E+00
  0.00000000E+00  0.00000000E+00  0.00000000E+00
  0.00000000E+00  0.00000000E+00  0.00000000E+00
  0.00000000E+00  0.00000000E+00  0.00000000E+00
  0.00000000E+00  0.00000000E+00  0.00000000E+00
  0.00000000E+00  0.00000000E+00  0.00000000E+00
  0.00000000E+00  0.00000000E+00  0.00000000E+00
  0.00000000E+00  0.00000000E+00  0.00000000E+00
  0.00000000E+00  0.00000000E+00  0.00000000E+00
  0.00000000E+00  0.00000000E+00  0.00000000E+00
  0.00000000E+00  0.00000000E+00  0.00000000E+00
  0.00000000E+00  0.00000000E+00  0.00000000E+00
  0.00000000E+00  0.00000000E+00  0.00000000E+00
  0.00000000E+00  0.00000000E+00  0.00000000E+00
  0.00000000E+00  0.00000000E+00  0.00000000E+00
  0.00000000E+00  0.00000000E+00  0.00000000E+00
  0.00000000E+00  0.00000000E+00  0.00000000E+00
  0.00000000E+00  0.00000000E+00  0.00000000E+00
  0.00000000E+00  0.00000000E+00  0.00000000E+00
  0.00000000E+00  0.00000000E+00  0.00000000E+00
  0.00000000E+00  0.00000000E+00  0.00000000E+00
  0.00000000E+00  0.00000000E+00  0.00000000E+00
  0.00000000E+00  0.00000000E+00  0.00000000E+00
  0.00000000E+00  0.00000000E+00  0.00000000E+00
  0.00000000E+00  0.00000000E+00  0.00000000E+00
  0.00000000E+00  0.00000000E+00  0.00000000E+00
  0.00000000E+00  0.00000000E+00  0.00000000E+00
  0.00000000E+00  0.00000000E+00  0.00000000E+00
  0.00000000E+00  0.00000000E+00  0.00000000E+00
  0.00000000E+00  0.00000000E+00  0.00000000E+00
