New structure                           
   1.00000000000000     
    14.5000000000000000    0.0000000000000000    0.0000000000000000
     0.0000000000000000   14.5000000000000000    0.0000000000000000
     0.0000000000000000    0.0000000000000000   14.5000000000000000
   Ni   Al   N 
   125   125     1
Direct
  0.0006567736172881  0.0001721782862240 -0.0002678933218511
 -0.0003982834497707 -0.0006098278251419  0.1995640438986462
 -0.0009007937062802 -0.0008136166514507  0.3999999999999986
 -0.0003982834497707 -0.0006098278251419  0.6004359561013580
  0.0006567736172881  0.0001721782862240  0.8002678933218483
 -0.0009995684436529  0.2000000000000028  0.0000770169332524
 -0.0004972838212239  0.2000000000000028  0.2004664953419059
 -0.0005715586504213  0.2000000000000028  0.3999999999999986
 -0.0004972838212239  0.2000000000000028  0.5995335046580982
 -0.0009995684436529  0.2000000000000028  0.7999229830667448
  0.0006567736172881  0.3998278217137744 -0.0002678933218511
 -0.0003982834497707  0.4006098278251406  0.1995640438986462
 -0.0009007937062802  0.4008136166514493  0.3999999999999986
 -0.0003982834497707  0.4006098278251406  0.6004359561013580
  0.0006567736172881  0.3998278217137744  0.8002678933218483
  0.0004285724970043  0.5995714275029971 -0.0007517781702832
 -0.0002270931822722  0.6002270931822734  0.1990487712588817
 -0.0006223145239240  0.6006223145239254  0.3999999999999986
 -0.0002270931822722  0.6002270931822734  0.6009512287411229
  0.0004285724970043  0.5995714275029971  0.8007517781702805
  0.0004285724970043  0.8004285724970015 -0.0007517781702832
 -0.0002270931822722  0.7997729068177252  0.1990487712588817
 -0.0006223145239240  0.7993776854760731  0.3999999999999986
 -0.0002270931822722  0.7997729068177252  0.6009512287411229
  0.0004285724970043  0.8004285724970015  0.8007517781702805
  0.2019359376495876  0.0019359376495848  0.0000912469296168
  0.1985790496853838 -0.0014209503146191  0.2018849862223358
  0.1990083137629220 -0.0009916862370808  0.3999999999999986
  0.1985790496853838 -0.0014209503146191  0.5981150137776687
  0.2019359376495876  0.0019359376495848  0.7999087530703806
  0.1983577943897527  0.2000000000000028  0.0016058771114937
  0.1980411001766697  0.2000000000000028  0.2018387416065840
  0.1984844329338090  0.2000000000000028  0.3999999999999986
  0.1980411001766697  0.2000000000000028  0.5981612583934203
  0.1983577943897527  0.2000000000000028  0.7983941228885035
  0.2019359376495876  0.3980640623504137  0.0000912469296168
  0.1985790496853838  0.4014209503146176  0.2018849862223358
  0.1990083137629220  0.4009916862370795  0.3999999999999986
  0.1985790496853838  0.4014209503146176  0.5981150137776687
  0.2019359376495876  0.3980640623504137  0.7999087530703806
  0.2001721782862269  0.5993432263827132 -0.0002678933218511
  0.1993901721748609  0.6003982834497722  0.1995640438986462
  0.1991863833485521  0.6009007937062819  0.3999999999999986
  0.1993901721748609  0.6003982834497722  0.6004359561013580
  0.2001721782862269  0.5993432263827132  0.8002678933218483
  0.2001721782862269  0.8006567736172854 -0.0002678933218511
  0.1993901721748609  0.7996017165502264  0.1995640438986462
  0.1991863833485521  0.7990992062937167  0.3999999999999986
  0.1993901721748609  0.7996017165502264  0.6004359561013580
  0.2001721782862269  0.8006567736172854  0.8002678933218483
  0.3999999999999986 -0.0016422056102501  0.0016058771114937
  0.3999999999999986 -0.0019588998233331  0.2018387416065840
  0.3999999999999986 -0.0015155670661938  0.3999999999999986
  0.3999999999999986 -0.0019588998233331  0.5981612583934203
  0.3999999999999986 -0.0016422056102501  0.7983941228885035
  0.3999999999999986  0.2000000000000028  0.0286946073785211
  0.3999999999999986  0.2000000000000028  0.2033289929561094
  0.3999999999999986  0.2000000000000028  0.3999999999999986
  0.3999999999999986  0.2000000000000028  0.5966710070438950
  0.3999999999999986  0.2000000000000028  0.7713053926214762
  0.3999999999999986  0.4016422056102487  0.0016058771114937
  0.3999999999999986  0.4019588998233318  0.2018387416065840
  0.3999999999999986  0.4015155670661924  0.3999999999999986
  0.3999999999999986  0.4019588998233318  0.5981612583934203
  0.3999999999999986  0.4016422056102487  0.7983941228885035
  0.3999999999999986  0.6009995684436541  0.0000770169332524
  0.3999999999999986  0.6004972838212255  0.2004664953419059
  0.3999999999999986  0.6005715586504223  0.3999999999999986
  0.3999999999999986  0.6004972838212255  0.5995335046580982
  0.3999999999999986  0.6009995684436541  0.7999229830667448
  0.3999999999999986  0.7990004315563445  0.0000770169332524
  0.3999999999999986  0.7995027161787731  0.2004664953419059
  0.3999999999999986  0.7994284413495762  0.3999999999999986
  0.3999999999999986  0.7995027161787731  0.5995335046580982
  0.3999999999999986  0.7990004315563445  0.7999229830667448
  0.5980640623504164  0.0019359376495848  0.0000912469296168
  0.6014209503146205 -0.0014209503146191  0.2018849862223358
  0.6009916862370821 -0.0009916862370808  0.3999999999999986
  0.6014209503146205 -0.0014209503146191  0.5981150137776687
  0.5980640623504164  0.0019359376495848  0.7999087530703806
  0.6016422056102514  0.2000000000000028  0.0016058771114937
  0.6019588998233343  0.2000000000000028  0.2018387416065840
  0.6015155670661950  0.2000000000000028  0.3999999999999986
  0.6019588998233343  0.2000000000000028  0.5981612583934203
  0.6016422056102514  0.2000000000000028  0.7983941228885035
  0.5980640623504164  0.3980640623504137  0.0000912469296168
  0.6014209503146205  0.4014209503146176  0.2018849862223358
  0.6009916862370821  0.4009916862370795  0.3999999999999986
  0.6014209503146205  0.4014209503146176  0.5981150137776687
  0.5980640623504164  0.3980640623504137  0.7999087530703806
  0.5998278217137774  0.5993432263827132 -0.0002678933218511
  0.6006098278251432  0.6003982834497722  0.1995640438986462
  0.6008136166514524  0.6009007937062819  0.3999999999999986
  0.6006098278251432  0.6003982834497722  0.6004359561013580
  0.5998278217137774  0.5993432263827132  0.8002678933218483
  0.5998278217137774  0.8006567736172854 -0.0002678933218511
  0.6006098278251432  0.7996017165502264  0.1995640438986462
  0.6008136166514524  0.7990992062937167  0.3999999999999986
  0.6006098278251432  0.7996017165502264  0.6004359561013580
  0.5998278217137774  0.8006567736172854  0.8002678933218483
  0.7993432263827089  0.0001721782862240 -0.0002678933218511
  0.8003982834497679 -0.0006098278251419  0.1995640438986462
  0.8009007937062776 -0.0008136166514507  0.3999999999999986
  0.8003982834497679 -0.0006098278251419  0.6004359561013580
  0.7993432263827089  0.0001721782862240  0.8002678933218483
  0.8009995684436498  0.2000000000000028  0.0000770169332524
  0.8004972838212212  0.2000000000000028  0.2004664953419059
  0.8005715586504181  0.2000000000000028  0.3999999999999986
  0.8004972838212212  0.2000000000000028  0.5995335046580982
  0.8009995684436498  0.2000000000000028  0.7999229830667448
  0.7993432263827089  0.3998278217137744 -0.0002678933218511
  0.8003982834497679  0.4006098278251406  0.1995640438986462
  0.8009007937062776  0.4008136166514493  0.3999999999999986
  0.8003982834497679  0.4006098278251406  0.6004359561013580
  0.7993432263827089  0.3998278217137744  0.8002678933218483
  0.7995714275029928  0.5995714275029971 -0.0007517781702832
  0.8002270931822691  0.6002270931822734  0.1990487712588817
  0.8006223145239212  0.6006223145239254  0.3999999999999986
  0.8002270931822691  0.6002270931822734  0.6009512287411229
  0.7995714275029928  0.5995714275029971  0.8007517781702805
  0.7995714275029928  0.8004285724970015 -0.0007517781702832
  0.8002270931822691  0.7997729068177252  0.1990487712588817
  0.8006223145239212  0.7993776854760731  0.3999999999999986
  0.8002270931822691  0.7997729068177252  0.6009512287411229
  0.7995714275029928  0.8004285724970015  0.8007517781702805
  0.0993279756454940  0.0997916955094992  0.1007005178642102
  0.0989873076881440  0.0994519685428602  0.3005147586034634
  0.0989873076881440  0.0994519685428602  0.4994852413965338
  0.0993279756454940  0.0997916955094992  0.6992994821357944
  0.1002138024350908  0.1007532457346178  0.8999999999999986
  0.0993279756454940  0.3002083044904994  0.1007005178642102
  0.0989873076881440  0.3005480314571384  0.3005147586034634
  0.0989873076881440  0.3005480314571384  0.4994852413965338
  0.0993279756454940  0.3002083044904994  0.6992994821357944
  0.1002138024350908  0.2992467542653807  0.8999999999999986
  0.1001657074975332  0.4998342925024682  0.0995920773024983
  0.0989803861029714  0.5010196138970298  0.3001779062141414
  0.0989803861029714  0.5010196138970298  0.4998220937858557
  0.1001657074975332  0.4998342925024682  0.7004079226975056
  0.1010529224661922  0.4989470775338091  0.8999999999999986
  0.0998405005513824  0.7000000000000028  0.0991634127081984
  0.0993339517853363  0.7000000000000028  0.2995866633679364
  0.0993339517853363  0.7000000000000028  0.5004133366320608
  0.0998405005513824  0.7000000000000028  0.7008365872918058
  0.1004024480830042  0.7000000000000028  0.8999999999999986
  0.1001657074975332  0.9001657074975306  0.0995920773024983
  0.0989803861029714  0.8989803861029688  0.3001779062141414
  0.0989803861029714  0.8989803861029688  0.4998220937858557
  0.1001657074975332  0.9001657074975306  0.7004079226975056
  0.1010529224661922  0.9010529224661894  0.8999999999999986
  0.2972229517398736  0.0972229517398779  0.1053465351904186
  0.2994105197770694  0.0994105197770736  0.3013246328353132
  0.2994105197770694  0.0994105197770736  0.4986753671646840
  0.2972229517398736  0.0972229517398779  0.6946534648095858
  0.3018321277435143  0.1018321277435184  0.8999999999999986
  0.2972229517398736  0.3027770482601207  0.1053465351904186
  0.2994105197770694  0.3005894802229249  0.3013246328353132
  0.2994105197770694  0.3005894802229249  0.4986753671646840
  0.2972229517398736  0.3027770482601207  0.6946534648095858
  0.3018321277435143  0.2981678722564800  0.8999999999999986
  0.2997916955094949  0.5006720243545076  0.1007005178642102
  0.2994519685428559  0.5010126923118575  0.3005147586034634
  0.2994519685428559  0.5010126923118575  0.4994852413965338
  0.2997916955094949  0.5006720243545076  0.6992994821357944
  0.3007532457346137  0.4997861975649107  0.8999999999999986
  0.2997094128160400  0.7000000000000028  0.1001139271266061
  0.2996700373361306  0.7000000000000028  0.2999557779164681
  0.2996700373361306  0.7000000000000028  0.5000442220835292
  0.2997094128160400  0.7000000000000028  0.6998860728733981
  0.2996694192888203  0.7000000000000028  0.8999999999999986
  0.2997916955094949  0.8993279756454909  0.1007005178642102
  0.2994519685428559  0.8989873076881411  0.3005147586034634
  0.2994519685428559  0.8989873076881411  0.4994852413965338
  0.2997916955094949  0.8993279756454909  0.6992994821357944
  0.3007532457346137  0.9002138024350879  0.8999999999999986
  0.5027770482601238  0.0972229517398779  0.1053465351904186
  0.5005894802229280  0.0994105197770736  0.3013246328353132
  0.5005894802229280  0.0994105197770736  0.4986753671646840
  0.5027770482601238  0.0972229517398779  0.6946534648095858
  0.4981678722564828  0.1018321277435184  0.8999999999999986
  0.5027770482601238  0.3027770482601207  0.1053465351904186
  0.5005894802229280  0.3005894802229249  0.3013246328353132
  0.5005894802229280  0.3005894802229249  0.4986753671646840
  0.5027770482601238  0.3027770482601207  0.6946534648095858
  0.4981678722564828  0.2981678722564800  0.8999999999999986
  0.5002083044905021  0.5006720243545076  0.1007005178642102
  0.5005480314571413  0.5010126923118575  0.3005147586034634
  0.5005480314571413  0.5010126923118575  0.4994852413965338
  0.5002083044905021  0.5006720243545076  0.6992994821357944
  0.4992467542653835  0.4997861975649107  0.8999999999999986
  0.5002905871839574  0.7000000000000028  0.1001139271266061
  0.5003299626638668  0.7000000000000028  0.2999557779164681
  0.5003299626638668  0.7000000000000028  0.5000442220835292
  0.5002905871839574  0.7000000000000028  0.6998860728733981
  0.5003305807111768  0.7000000000000028  0.8999999999999986
  0.5002083044905021  0.8993279756454909  0.1007005178642102
  0.5005480314571413  0.8989873076881411  0.3005147586034634
  0.5005480314571413  0.8989873076881411  0.4994852413965338
  0.5002083044905021  0.8993279756454909  0.6992994821357944
  0.4992467542653835  0.9002138024350879  0.8999999999999986
  0.7006720243545105  0.0997916955094992  0.1007005178642102
  0.7010126923118604  0.0994519685428602  0.3005147586034634
  0.7010126923118604  0.0994519685428602  0.4994852413965338
  0.7006720243545105  0.0997916955094992  0.6992994821357944
  0.6997861975649136  0.1007532457346178  0.8999999999999986
  0.7006720243545105  0.3002083044904994  0.1007005178642102
  0.7010126923118604  0.3005480314571384  0.3005147586034634
  0.7010126923118604  0.3005480314571384  0.4994852413965338
  0.7006720243545105  0.3002083044904994  0.6992994821357944
  0.6997861975649136  0.2992467542653807  0.8999999999999986
  0.6998342925024709  0.4998342925024682  0.0995920773024983
  0.7010196138970326  0.5010196138970298  0.3001779062141414
  0.7010196138970326  0.5010196138970298  0.4998220937858557
  0.6998342925024709  0.4998342925024682  0.7004079226975056
  0.6989470775338120  0.4989470775338091  0.8999999999999986
  0.7001594994486219  0.7000000000000028  0.0991634127081984
  0.7006660482146676  0.7000000000000028  0.2995866633679364
  0.7006660482146676  0.7000000000000028  0.5004133366320608
  0.7001594994486219  0.7000000000000028  0.7008365872918058
  0.6995975519170000  0.7000000000000028  0.8999999999999986
  0.6998342925024709  0.9001657074975306  0.0995920773024983
  0.7010196138970326  0.8989803861029688  0.3001779062141414
  0.7010196138970326  0.8989803861029688  0.4998220937858557
  0.6998342925024709  0.9001657074975306  0.7004079226975056
  0.6989470775338120  0.9010529224661894  0.8999999999999986
  0.8999999999999986  0.0997094128160443  0.1001139271266061
  0.8999999999999986  0.0996700373361347  0.2999557779164681
  0.8999999999999986  0.0996700373361347  0.5000442220835292
  0.8999999999999986  0.0997094128160443  0.6998860728733981
  0.8999999999999986  0.0996694192888247  0.8999999999999986
  0.8999999999999986  0.3002905871839543  0.1001139271266061
  0.8999999999999986  0.3003299626638637  0.2999557779164681
  0.8999999999999986  0.3003299626638637  0.5000442220835292
  0.8999999999999986  0.3002905871839543  0.6998860728733981
  0.8999999999999986  0.3003305807111740  0.8999999999999986
  0.8999999999999986  0.5001594994486190  0.0991634127081984
  0.8999999999999986  0.5006660482146648  0.2995866633679364
  0.8999999999999986  0.5006660482146648  0.5004133366320608
  0.8999999999999986  0.5001594994486190  0.7008365872918058
  0.8999999999999986  0.4995975519169972  0.8999999999999986
  0.8999999999999986  0.7000000000000028  0.0989191216185347
  0.8999999999999986  0.7000000000000028  0.2992175250180401
  0.8999999999999986  0.7000000000000028  0.5007824749819569
  0.8999999999999986  0.7000000000000028  0.7010808783814693
  0.8999999999999986  0.7000000000000028  0.8999999999999986
  0.8999999999999986  0.8998405005513795  0.0991634127081984
  0.8999999999999986  0.8993339517853338  0.2995866633679364
  0.8999999999999986  0.8993339517853338  0.5004133366320608
  0.8999999999999986  0.8998405005513795  0.7008365872918058
  0.8999999999999986  0.9004024480830014  0.8999999999999986
  0.3999999999999986  0.2000000000000028  0.8999999999999986
 
  0.00000000E+00  0.00000000E+00  0.00000000E+00
  0.00000000E+00  0.00000000E+00  0.00000000E+00
  0.00000000E+00  0.00000000E+00  0.00000000E+00
  0.00000000E+00  0.00000000E+00  0.00000000E+00
  0.00000000E+00  0.00000000E+00  0.00000000E+00
  0.00000000E+00  0.00000000E+00  0.00000000E+00
  0.00000000E+00  0.00000000E+00  0.00000000E+00
  0.00000000E+00  0.00000000E+00  0.00000000E+00
  0.00000000E+00  0.00000000E+00  0.00000000E+00
  0.00000000E+00  0.00000000E+00  0.00000000E+00
  0.00000000E+00  0.00000000E+00  0.00000000E+00
  0.00000000E+00  0.00000000E+00  0.00000000E+00
  0.00000000E+00  0.00000000E+00  0.00000000E+00
  0.00000000E+00  0.00000000E+00  0.00000000E+00
  0.00000000E+00  0.00000000E+00  0.00000000E+00
  0.00000000E+00  0.00000000E+00  0.00000000E+00
  0.00000000E+00  0.00000000E+00  0.00000000E+00
  0.00000000E+00  0.00000000E+00  0.00000000E+00
  0.00000000E+00  0.00000000E+00  0.00000000E+00
  0.00000000E+00  0.00000000E+00  0.00000000E+00
  0.00000000E+00  0.00000000E+00  0.00000000E+00
  0.00000000E+00  0.00000000E+00  0.00000000E+00
  0.00000000E+00  0.00000000E+00  0.00000000E+00
  0.00000000E+00  0.00000000E+00  0.00000000E+00
  0.00000000E+00  0.00000000E+00  0.00000000E+00
  0.00000000E+00  0.00000000E+00  0.00000000E+00
  0.00000000E+00  0.00000000E+00  0.00000000E+00
  0.00000000E+00  0.00000000E+00  0.00000000E+00
  0.00000000E+00  0.00000000E+00  0.00000000E+00
  0.00000000E+00  0.00000000E+00  0.00000000E+00
  0.00000000E+00  0.00000000E+00  0.00000000E+00
  0.00000000E+00  0.00000000E+00  0.00000000E+00
  0.00000000E+00  0.00000000E+00  0.00000000E+00
  0.00000000E+00  0.00000000E+00  0.00000000E+00
  0.00000000E+00  0.00000000E+00  0.00000000E+00
  0.00000000E+00  0.00000000E+00  0.00000000E+00
  0.00000000E+00  0.00000000E+00  0.00000000E+00
  0.00000000E+00  0.00000000E+00  0.00000000E+00
  0.00000000E+00  0.00000000E+00  0.00000000E+00
  0.00000000E+00  0.00000000E+00  0.00000000E+00
  0.00000000E+00  0.00000000E+00  0.00000000E+00
  0.00000000E+00  0.00000000E+00  0.00000000E+00
  0.00000000E+00  0.00000000E+00  0.00000000E+00
  0.00000000E+00  0.00000000E+00  0.00000000E+00
  0.00000000E+00  0.00000000E+00  0.00000000E+00
  0.00000000E+00  0.00000000E+00  0.00000000E+00
  0.00000000E+00  0.00000000E+00  0.00000000E+00
  0.00000000E+00  0.00000000E+00  0.00000000E+00
  0.00000000E+00  0.00000000E+00  0.00000000E+00
  0.00000000E+00  0.00000000E+00  0.00000000E+00
  0.00000000E+00  0.00000000E+00  0.00000000E+00
  0.00000000E+00  0.00000000E+00  0.00000000E+00
  0.00000000E+00  0.00000000E+00  0.00000000E+00
  0.00000000E+00  0.00000000E+00  0.00000000E+00
  0.00000000E+00  0.00000000E+00  0.00000000E+00
  0.00000000E+00  0.00000000E+00  0.00000000E+00
  0.00000000E+00  0.00000000E+00  0.00000000E+00
  0.00000000E+00  0.00000000E+00  0.00000000E+00
  0.00000000E+00  0.00000000E+00  0.00000000E+00
  0.00000000E+00  0.00000000E+00  0.00000000E+00
  0.00000000E+00  0.00000000E+00  0.00000000E+00
  0.00000000E+00  0.00000000E+00  0.00000000E+00
  0.00000000E+00  0.00000000E+00  0.00000000E+00
  0.00000000E+00  0.00000000E+00  0.00000000E+00
  0.00000000E+00  0.00000000E+00  0.00000000E+00
  0.00000000E+00  0.00000000E+00  0.00000000E+00
  0.00000000E+00  0.00000000E+00  0.00000000E+00
  0.00000000E+00  0.00000000E+00  0.00000000E+00
  0.00000000E+00  0.00000000E+00  0.00000000E+00
  0.00000000E+00  0.00000000E+00  0.00000000E+00
  0.00000000E+00  0.00000000E+00  0.00000000E+00
  0.00000000E+00  0.00000000E+00  0.00000000E+00
  0.00000000E+00  0.00000000E+00  0.00000000E+00
  0.00000000E+00  0.00000000E+00  0.00000000E+00
  0.00000000E+00  0.00000000E+00  0.00000000E+00
  0.00000000E+00  0.00000000E+00  0.00000000E+00
  0.00000000E+00  0.00000000E+00  0.00000000E+00
  0.00000000E+00  0.00000000E+00  0.00000000E+00
  0.00000000E+00  0.00000000E+00  0.00000000E+00
  0.00000000E+00  0.00000000E+00  0.00000000E+00
  0.00000000E+00  0.00000000E+00  0.00000000E+00
  0.00000000E+00  0.00000000E+00  0.00000000E+00
  0.00000000E+00  0.00000000E+00  0.00000000E+00
  0.00000000E+00  0.00000000E+00  0.00000000E+00
  0.00000000E+00  0.00000000E+00  0.00000000E+00
  0.00000000E+00  0.00000000E+00  0.00000000E+00
  0.00000000E+00  0.00000000E+00  0.00000000E+00
  0.00000000E+00  0.00000000E+00  0.00000000E+00
  0.00000000E+00  0.00000000E+00  0.00000000E+00
  0.00000000E+00  0.00000000E+00  0.00000000E+00
  0.00000000E+00  0.00000000E+00  0.00000000E+00
  0.00000000E+00  0.00000000E+00  0.00000000E+00
  0.00000000E+00  0.00000000E+00  0.00000000E+00
  0.00000000E+00  0.00000000E+00  0.00000000E+00
  0.00000000E+00  0.00000000E+00  0.00000000E+00
  0.00000000E+00  0.00000000E+00  0.00000000E+00
  0.00000000E+00  0.00000000E+00  0.00000000E+00
  0.00000000E+00  0.00000000E+00  0.00000000E+00
  0.00000000E+00  0.00000000E+00  0.00000000E+00
  0.00000000E+00  0.00000000E+00  0.00000000E+00
  0.00000000E+00  0.00000000E+00  0.00000000E+00
  0.00000000E+00  0.00000000E+00  0.00000000E+00
  0.00000000E+00  0.00000000E+00  0.00000000E+00
  0.00000000E+00  0.00000000E+00  0.00000000E+00
  0.00000000E+00  0.00000000E+00  0.00000000E+00
  0.00000000E+00  0.00000000E+00  0.00000000E+00
  0.00000000E+00  0.00000000E+00  0.00000000E+00
  0.00000000E+00  0.00000000E+00  0.00000000E+00
  0.00000000E+00  0.00000000E+00  0.00000000E+00
  0.00000000E+00  0.00000000E+00  0.00000000E+00
  0.00000000E+00  0.00000000E+00  0.00000000E+00
  0.00000000E+00  0.00000000E+00  0.00000000E+00
  0.00000000E+00  0.00000000E+00  0.00000000E+00
  0.00000000E+00  0.00000000E+00  0.00000000E+00
  0.00000000E+00  0.00000000E+00  0.00000000E+00
  0.00000000E+00  0.00000000E+00  0.00000000E+00
  0.00000000E+00  0.00000000E+00  0.00000000E+00
  0.00000000E+00  0.00000000E+00  0.00000000E+00
  0.00000000E+00  0.00000000E+00  0.00000000E+00
  0.00000000E+00  0.00000000E+00  0.00000000E+00
  0.00000000E+00  0.00000000E+00  0.00000000E+00
  0.00000000E+00  0.00000000E+00  0.00000000E+00
  0.00000000E+00  0.00000000E+00  0.00000000E+00
  0.00000000E+00  0.00000000E+00  0.00000000E+00
  0.00000000E+00  0.00000000E+00  0.00000000E+00
  0.00000000E+00  0.00000000E+00  0.00000000E+00
  0.00000000E+00  0.00000000E+00  0.00000000E+00
  0.00000000E+00  0.00000000E+00  0.00000000E+00
  0.00000000E+00  0.00000000E+00  0.00000000E+00
  0.00000000E+00  0.00000000E+00  0.00000000E+00
  0.00000000E+00  0.00000000E+00  0.00000000E+00
  0.00000000E+00  0.00000000E+00  0.00000000E+00
  0.00000000E+00  0.00000000E+00  0.00000000E+00
  0.00000000E+00  0.00000000E+00  0.00000000E+00
  0.00000000E+00  0.00000000E+00  0.00000000E+00
  0.00000000E+00  0.00000000E+00  0.00000000E+00
  0.00000000E+00  0.00000000E+00  0.00000000E+00
  0.00000000E+00  0.00000000E+00  0.00000000E+00
  0.00000000E+00  0.00000000E+00  0.00000000E+00
  0.00000000E+00  0.00000000E+00  0.00000000E+00
  0.00000000E+00  0.00000000E+00  0.00000000E+00
  0.00000000E+00  0.00000000E+00  0.00000000E+00
  0.00000000E+00  0.00000000E+00  0.00000000E+00
  0.00000000E+00  0.00000000E+00  0.00000000E+00
  0.00000000E+00  0.00000000E+00  0.00000000E+00
  0.00000000E+00  0.00000000E+00  0.00000000E+00
  0.00000000E+00  0.00000000E+00  0.00000000E+00
  0.00000000E+00  0.00000000E+00  0.00000000E+00
  0.00000000E+00  0.00000000E+00  0.00000000E+00
  0.00000000E+00  0.00000000E+00  0.00000000E+00
  0.00000000E+00  0.00000000E+00  0.00000000E+00
  0.00000000E+00  0.00000000E+00  0.00000000E+00
  0.00000000E+00  0.00000000E+00  0.00000000E+00
  0.00000000E+00  0.00000000E+00  0.00000000E+00
  0.00000000E+00  0.00000000E+00  0.00000000E+00
  0.00000000E+00  0.00000000E+00  0.00000000E+00
  0.00000000E+00  0.00000000E+00  0.00000000E+00
  0.00000000E+00  0.00000000E+00  0.00000000E+00
  0.00000000E+00  0.00000000E+00  0.00000000E+00
  0.00000000E+00  0.00000000E+00  0.00000000E+00
  0.00000000E+00  0.00000000E+00  0.00000000E+00
  0.00000000E+00  0.00000000E+00  0.00000000E+00
  0.00000000E+00  0.00000000E+00  0.00000000E+00
  0.00000000E+00  0.00000000E+00  0.00000000E+00
  0.00000000E+00  0.00000000E+00  0.00000000E+00
  0.00000000E+00  0.00000000E+00  0.00000000E+00
  0.00000000E+00  0.00000000E+00  0.00000000E+00
  0.00000000E+00  0.00000000E+00  0.00000000E+00
  0.00000000E+00  0.00000000E+00  0.00000000E+00
  0.00000000E+00  0.00000000E+00  0.00000000E+00
  0.00000000E+00  0.00000000E+00  0.00000000E+00
  0.00000000E+00  0.00000000E+00  0.00000000E+00
  0.00000000E+00  0.00000000E+00  0.00000000E+00
  0.00000000E+00  0.00000000E+00  0.00000000E+00
  0.00000000E+00  0.00000000E+00  0.00000000E+00
  0.00000000E+00  0.00000000E+00  0.00000000E+00
  0.00000000E+00  0.00000000E+00  0.00000000E+00
  0.00000000E+00  0.00000000E+00  0.00000000E+00
  0.00000000E+00  0.00000000E+00  0.00000000E+00
  0.00000000E+00  0.00000000E+00  0.00000000E+00
  0.00000000E+00  0.00000000E+00  0.00000000E+00
  0.00000000E+00  0.00000000E+00  0.00000000E+00
  0.00000000E+00  0.00000000E+00  0.00000000E+00
  0.00000000E+00  0.00000000E+00  0.00000000E+00
  0.00000000E+00  0.00000000E+00  0.00000000E+00
  0.00000000E+00  0.00000000E+00  0.00000000E+00
  0.00000000E+00  0.00000000E+00  0.00000000E+00
  0.00000000E+00  0.00000000E+00  0.00000000E+00
  0.00000000E+00  0.00000000E+00  0.00000000E+00
  0.00000000E+00  0.00000000E+00  0.00000000E+00
  0.00000000E+00  0.00000000E+00  0.00000000E+00
  0.00000000E+00  0.00000000E+00  0.00000000E+00
  0.00000000E+00  0.00000000E+00  0.00000000E+00
  0.00000000E+00  0.00000000E+00  0.00000000E+00
  0.00000000E+00  0.00000000E+00  0.00000000E+00
  0.00000000E+00  0.00000000E+00  0.00000000E+00
  0.00000000E+00  0.00000000E+00  0.00000000E+00
  0.00000000E+00  0.00000000E+00  0.00000000E+00
  0.00000000E+00  0.00000000E+00  0.00000000E+00
  0.00000000E+00  0.00000000E+00  0.00000000E+00
  0.00000000E+00  0.00000000E+00  0.00000000E+00
  0.00000000E+00  0.00000000E+00  0.00000000E+00
  0.00000000E+00  0.00000000E+00  0.00000000E+00
  0.00000000E+00  0.00000000E+00  0.00000000E+00
  0.00000000E+00  0.00000000E+00  0.00000000E+00
  0.00000000E+00  0.00000000E+00  0.00000000E+00
  0.00000000E+00  0.00000000E+00  0.00000000E+00
  0.00000000E+00  0.00000000E+00  0.00000000E+00
  0.00000000E+00  0.00000000E+00  0.00000000E+00
  0.00000000E+00  0.00000000E+00  0.00000000E+00
  0.00000000E+00  0.00000000E+00  0.00000000E+00
  0.00000000E+00  0.00000000E+00  0.00000000E+00
  0.00000000E+00  0.00000000E+00  0.00000000E+00
  0.00000000E+00  0.00000000E+00  0.00000000E+00
  0.00000000E+00  0.00000000E+00  0.00000000E+00
  0.00000000E+00  0.00000000E+00  0.00000000E+00
  0.00000000E+00  0.00000000E+00  0.00000000E+00
  0.00000000E+00  0.00000000E+00  0.00000000E+00
  0.00000000E+00  0.00000000E+00  0.00000000E+00
  0.00000000E+00  0.00000000E+00  0.00000000E+00
  0.00000000E+00  0.00000000E+00  0.00000000E+00
  0.00000000E+00  0.00000000E+00  0.00000000E+00
  0.00000000E+00  0.00000000E+00  0.00000000E+00
  0.00000000E+00  0.00000000E+00  0.00000000E+00
  0.00000000E+00  0.00000000E+00  0.00000000E+00
  0.00000000E+00  0.00000000E+00  0.00000000E+00
  0.00000000E+00  0.00000000E+00  0.00000000E+00
  0.00000000E+00  0.00000000E+00  0.00000000E+00
  0.00000000E+00  0.00000000E+00  0.00000000E+00
  0.00000000E+00  0.00000000E+00  0.00000000E+00
  0.00000000E+00  0.00000000E+00  0.00000000E+00
  0.00000000E+00  0.00000000E+00  0.00000000E+00
  0.00000000E+00  0.00000000E+00  0.00000000E+00
  0.00000000E+00  0.00000000E+00  0.00000000E+00
  0.00000000E+00  0.00000000E+00  0.00000000E+00
  0.00000000E+00  0.00000000E+00  0.00000000E+00
  0.00000000E+00  0.00000000E+00  0.00000000E+00
  0.00000000E+00  0.00000000E+00  0.00000000E+00
  0.00000000E+00  0.00000000E+00  0.00000000E+00
  0.00000000E+00  0.00000000E+00  0.00000000E+00
  0.00000000E+00  0.00000000E+00  0.00000000E+00
  0.00000000E+00  0.00000000E+00  0.00000000E+00
  0.00000000E+00  0.00000000E+00  0.00000000E+00
  0.00000000E+00  0.00000000E+00  0.00000000E+00
  0.00000000E+00  0.00000000E+00  0.00000000E+00
  0.00000000E+00  0.00000000E+00  0.00000000E+00
  0.00000000E+00  0.00000000E+00  0.00000000E+00
  0.00000000E+00  0.00000000E+00  0.00000000E+00
  0.00000000E+00  0.00000000E+00  0.00000000E+00
  0.00000000E+00  0.00000000E+00  0.00000000E+00
  0.00000000E+00  0.00000000E+00  0.00000000E+00
