New structure                           
   1.00000000000000     
    14.5000000000000000    0.0000000000000000    0.0000000000000000
     0.0000000000000000   14.5000000000000000    0.0000000000000000
     0.0000000000000000    0.0000000000000000   14.5000000000000000
   Ni   Al   N 
   125   125     1
Direct
  0.0000142539947281  0.0000142539947281 -0.0000000000000000
 -0.0019500444356524 -0.0019500444356524  0.2043177806177958
 -0.0010299880478190 -0.0010299880478190  0.4012181964974640
 -0.0010299880478190 -0.0010299880478190  0.5987818035025358
 -0.0019500444356524 -0.0019500444356524  0.7956822193822042
  0.0000142539947281  0.1999857460052748 -0.0000000000000000
 -0.0019500444356524  0.2019500444356553  0.2043177806177958
 -0.0010299880478190  0.2010299880478219  0.4012181964974640
 -0.0010299880478190  0.2010299880478219  0.5987818035025358
 -0.0019500444356524  0.2019500444356553  0.7956822193822042
  0.0013668701116292  0.3988738627420123 -0.0000000000000000
 -0.0006957273652916  0.4005081286731182  0.2010084694452282
 -0.0004307601176504  0.4010522977152275  0.4006254791211642
 -0.0004307601176504  0.4010522977152275  0.5993745208788359
 -0.0006957273652916  0.4005081286731182  0.7989915305547718
  0.0005485692912666  0.6000000000000014 -0.0000000000000000
 -0.0002970253111459  0.6000000000000014  0.1997826551745324
 -0.0001377491931532  0.6000000000000014  0.3999170066700601
 -0.0001377491931532  0.6000000000000014  0.6000829933299399
 -0.0002970253111459  0.6000000000000014  0.8002173448254674
  0.0013668701116292  0.8011261372579834 -0.0000000000000000
 -0.0006957273652916  0.7994918713268775  0.2010084694452282
 -0.0004307601176504  0.7989477022847681  0.4006254791211642
 -0.0004307601176504  0.7989477022847681  0.5993745208788359
 -0.0006957273652916  0.7994918713268775  0.7989915305547718
  0.1999857460052748  0.0000142539947281 -0.0000000000000000
  0.2019500444356553 -0.0019500444356524  0.2043177806177958
  0.2010299880478219 -0.0010299880478190  0.4012181964974640
  0.2010299880478219 -0.0010299880478190  0.5987818035025358
  0.2019500444356553 -0.0019500444356524  0.7956822193822042
  0.1999857460052748  0.1999857460052748 -0.0000000000000000
  0.2019500444356553  0.2019500444356553  0.2043177806177958
  0.2010299880478219  0.2010299880478219  0.4012181964974640
  0.2010299880478219  0.2010299880478219  0.5987818035025358
  0.2019500444356553  0.2019500444356553  0.7956822193822042
  0.1986331298883737  0.3988738627420123 -0.0000000000000000
  0.2006957273652945  0.4005081286731182  0.2010084694452282
  0.2004307601176532  0.4010522977152275  0.4006254791211642
  0.2004307601176532  0.4010522977152275  0.5993745208788359
  0.2006957273652945  0.4005081286731182  0.7989915305547718
  0.1994514307087362  0.6000000000000014 -0.0000000000000000
  0.2002970253111488  0.6000000000000014  0.1997826551745324
  0.2001377491931561  0.6000000000000014  0.3999170066700601
  0.2001377491931561  0.6000000000000014  0.6000829933299399
  0.2002970253111488  0.6000000000000014  0.8002173448254674
  0.1986331298883737  0.8011261372579834 -0.0000000000000000
  0.2006957273652945  0.7994918713268775  0.2010084694452282
  0.2004307601176532  0.7989477022847681  0.4006254791211642
  0.2004307601176532  0.7989477022847681  0.5993745208788359
  0.2006957273652945  0.7994918713268775  0.7989915305547718
  0.3988738627420123  0.0013668701116292 -0.0000000000000000
  0.4005081286731182 -0.0006957273652916  0.2010084694452282
  0.4010522977152275 -0.0004307601176504  0.4006254791211642
  0.4010522977152275 -0.0004307601176504  0.5993745208788359
  0.4005081286731182 -0.0006957273652916  0.7989915305547718
  0.3988738627420123  0.1986331298883737 -0.0000000000000000
  0.4005081286731182  0.2006957273652945  0.2010084694452282
  0.4010522977152275  0.2004307601176532  0.4006254791211642
  0.4010522977152275  0.2004307601176532  0.5993745208788359
  0.4005081286731182  0.2006957273652945  0.7989915305547718
  0.3995889538994135  0.3995889538994135 -0.0000000000000000
  0.4001323003700286  0.4001323003700286  0.1995190772655479
  0.4008909806150028  0.4008909806150028  0.3999183028797210
  0.4008909806150028  0.4008909806150028  0.6000816971202788
  0.4001323003700286  0.4001323003700286  0.8004809227344521
  0.3992779867666280  0.6000000000000014 -0.0000000000000000
  0.4000181705753537  0.6000000000000014  0.1990998212314848
  0.4005638616557058  0.6000000000000014  0.3997399594596751
  0.4005638616557058  0.6000000000000014  0.6002600405403250
  0.4000181705753537  0.6000000000000014  0.8009001787685150
  0.3995889538994135  0.8004110461005823 -0.0000000000000000
  0.4001323003700286  0.7998676996299670  0.1995190772655479
  0.4008909806150028  0.7991090193849930  0.3999183028797210
  0.4008909806150028  0.7991090193849930  0.6000816971202788
  0.4001323003700286  0.7998676996299670  0.8004809227344521
  0.6000000000000014  0.0005485692912666 -0.0000000000000000
  0.6000000000000014 -0.0002970253111459  0.1997826551745324
  0.6000000000000014 -0.0001377491931532  0.3999170066700601
  0.6000000000000014 -0.0001377491931532  0.6000829933299399
  0.6000000000000014 -0.0002970253111459  0.8002173448254674
  0.6000000000000014  0.1994514307087362 -0.0000000000000000
  0.6000000000000014  0.2002970253111488  0.1997826551745324
  0.6000000000000014  0.2001377491931561  0.3999170066700601
  0.6000000000000014  0.2001377491931561  0.6000829933299399
  0.6000000000000014  0.2002970253111488  0.8002173448254674
  0.6000000000000014  0.3992779867666280 -0.0000000000000000
  0.6000000000000014  0.4000181705753537  0.1990998212314848
  0.6000000000000014  0.4005638616557058  0.3997399594596751
  0.6000000000000014  0.4005638616557058  0.6002600405403250
  0.6000000000000014  0.4000181705753537  0.8009001787685150
  0.6000000000000014  0.6000000000000014 -0.0000000000000000
  0.6000000000000014  0.6000000000000014  0.1989197597786370
  0.6000000000000014  0.6000000000000014  0.3990876719817406
  0.6000000000000014  0.6000000000000014  0.6009123280182592
  0.6000000000000014  0.6000000000000014  0.8010802402213631
  0.6000000000000014  0.8007220132333679 -0.0000000000000000
  0.6000000000000014  0.7999818294246417  0.1990998212314848
  0.6000000000000014  0.7994361383442898  0.3997399594596751
  0.6000000000000014  0.7994361383442898  0.6002600405403250
  0.6000000000000014  0.7999818294246417  0.8009001787685150
  0.8011261372579834  0.0013668701116292 -0.0000000000000000
  0.7994918713268775 -0.0006957273652916  0.2010084694452282
  0.7989477022847681 -0.0004307601176504  0.4006254791211642
  0.7989477022847681 -0.0004307601176504  0.5993745208788359
  0.7994918713268775 -0.0006957273652916  0.7989915305547718
  0.8011261372579834  0.1986331298883737 -0.0000000000000000
  0.7994918713268775  0.2006957273652945  0.2010084694452282
  0.7989477022847681  0.2004307601176532  0.4006254791211642
  0.7989477022847681  0.2004307601176532  0.5993745208788359
  0.7994918713268775  0.2006957273652945  0.7989915305547718
  0.8004110461005823  0.3995889538994135 -0.0000000000000000
  0.7998676996299670  0.4001323003700286  0.1995190772655479
  0.7991090193849930  0.4008909806150028  0.3999183028797210
  0.7991090193849930  0.4008909806150028  0.6000816971202788
  0.7998676996299670  0.4001323003700286  0.8004809227344521
  0.8007220132333679  0.6000000000000014 -0.0000000000000000
  0.7999818294246417  0.6000000000000014  0.1990998212314848
  0.7994361383442898  0.6000000000000014  0.3997399594596751
  0.7994361383442898  0.6000000000000014  0.6002600405403250
  0.7999818294246417  0.6000000000000014  0.8009001787685150
  0.8004110461005823  0.8004110461005823 -0.0000000000000000
  0.7998676996299670  0.7998676996299670  0.1995190772655479
  0.7991090193849930  0.7991090193849930  0.3999183028797210
  0.7991090193849930  0.7991090193849930  0.6000816971202788
  0.7998676996299670  0.7998676996299670  0.8004809227344521
  0.1000000000000014  0.1000000000000014  0.1241350175922286
  0.1000000000000014  0.1000000000000014  0.3069419791690263
  0.1000000000000014  0.1000000000000014  0.5000000000000000
  0.1000000000000014  0.1000000000000014  0.6930580208309737
  0.1000000000000014  0.1000000000000014  0.8758649824077714
  0.1000000000000014  0.3012948915119811  0.1034571424331298
  0.1000000000000014  0.3011903450652460  0.3019079269084685
  0.1000000000000014  0.3009630775389419  0.5000000000000000
  0.1000000000000014  0.3011903450652460  0.6980920730915311
  0.1000000000000014  0.3012948915119811  0.8965428575668706
  0.1000000000000014  0.4999481964561470  0.1002458864341008
  0.1000000000000014  0.5003874452876708  0.3000565744927788
  0.1000000000000014  0.5005688198304186  0.5000000000000000
  0.1000000000000014  0.5003874452876708  0.6999434255072212
  0.1000000000000014  0.4999481964561470  0.8997541135658991
  0.1000000000000014  0.7000518035438560  0.1002458864341008
  0.1000000000000014  0.6996125547123321  0.3000565744927788
  0.1000000000000014  0.6994311801695844  0.5000000000000000
  0.1000000000000014  0.6996125547123321  0.6999434255072212
  0.1000000000000014  0.7000518035438560  0.8997541135658991
  0.1000000000000014  0.8987051084880148  0.1034571424331298
  0.1000000000000014  0.8988096549347497  0.3019079269084685
  0.1000000000000014  0.8990369224610534  0.5000000000000000
  0.1000000000000014  0.8988096549347497  0.6980920730915311
  0.1000000000000014  0.8987051084880148  0.8965428575668706
  0.3012948915119811  0.1000000000000014  0.1034571424331298
  0.3011903450652460  0.1000000000000014  0.3019079269084685
  0.3009630775389419  0.1000000000000014  0.5000000000000000
  0.3011903450652460  0.1000000000000014  0.6980920730915311
  0.3012948915119811  0.1000000000000014  0.8965428575668706
  0.2995683643129886  0.2995683643129886  0.0998723386080777
  0.3012914683127660  0.3012914683127660  0.3013983573386468
  0.3010766577776610  0.3010766577776610  0.5000000000000000
  0.3012914683127660  0.3012914683127660  0.6986016426613527
  0.2995683643129886  0.2995683643129886  0.9001276613919226
  0.2996412974844140  0.4996241806568598  0.0996215422818360
  0.3005191572600156  0.5004296511793059  0.3000538988939980
  0.3006502939742682  0.5006133739357174  0.5000000000000000
  0.3005191572600156  0.5004296511793059  0.6999461011060022
  0.2996412974844140  0.4996241806568598  0.9003784577181638
  0.2996412974844140  0.7003758193431429  0.0996215422818360
  0.3005191572600156  0.6995703488206968  0.3000538988939980
  0.3006502939742682  0.6993866260642855  0.5000000000000000
  0.3005191572600156  0.6995703488206968  0.6999461011060022
  0.2996412974844140  0.7003758193431429  0.9003784577181638
  0.2995683643129886  0.9004316356870072  0.0998723386080777
  0.3012914683127660  0.8987085316872303  0.3013983573386468
  0.3010766577776610  0.8989233422223348  0.5000000000000000
  0.3012914683127660  0.8987085316872303  0.6986016426613527
  0.2995683643129886  0.9004316356870072  0.9001276613919226
  0.4999481964561470  0.1000000000000014  0.1002458864341008
  0.5003874452876708  0.1000000000000014  0.3000565744927788
  0.5005688198304186  0.1000000000000014  0.5000000000000000
  0.5003874452876708  0.1000000000000014  0.6999434255072212
  0.4999481964561470  0.1000000000000014  0.8997541135658991
  0.4996241806568598  0.2996412974844140  0.0996215422818360
  0.5004296511793059  0.3005191572600156  0.3000538988939980
  0.5006133739357174  0.3006502939742682  0.5000000000000000
  0.5004296511793059  0.3005191572600156  0.6999461011060022
  0.4996241806568598  0.2996412974844140  0.9003784577181638
  0.4998491017153285  0.4998491017153285  0.0993387014861817
  0.5002228210105889  0.5002228210105889  0.2993511142423180
  0.5004886101842463  0.5004886101842463  0.5000000000000000
  0.5002228210105889  0.5002228210105889  0.7006488857576824
  0.4998491017153285  0.4998491017153285  0.9006612985138186
  0.4998491017153285  0.7001508982846745  0.0993387014861817
  0.5002228210105889  0.6997771789894139  0.2993511142423180
  0.5004886101842463  0.6995113898157567  0.5000000000000000
  0.5002228210105889  0.6997771789894139  0.7006488857576824
  0.4998491017153285  0.7001508982846745  0.9006612985138186
  0.4996241806568598  0.9003587025155815  0.0996215422818360
  0.5004296511793059  0.8994808427399800  0.3000538988939980
  0.5006133739357174  0.8993497060257273  0.5000000000000000
  0.5004296511793059  0.8994808427399800  0.6999461011060022
  0.4996241806568598  0.9003587025155815  0.9003784577181638
  0.7000518035438560  0.1000000000000014  0.1002458864341008
  0.6996125547123321  0.1000000000000014  0.3000565744927788
  0.6994311801695844  0.1000000000000014  0.5000000000000000
  0.6996125547123321  0.1000000000000014  0.6999434255072212
  0.7000518035438560  0.1000000000000014  0.8997541135658991
  0.7003758193431429  0.2996412974844140  0.0996215422818360
  0.6995703488206968  0.3005191572600156  0.3000538988939980
  0.6993866260642855  0.3006502939742682  0.5000000000000000
  0.6995703488206968  0.3005191572600156  0.6999461011060022
  0.7003758193431429  0.2996412974844140  0.9003784577181638
  0.7001508982846745  0.4998491017153285  0.0993387014861817
  0.6997771789894139  0.5002228210105889  0.2993511142423180
  0.6995113898157567  0.5004886101842463  0.5000000000000000
  0.6997771789894139  0.5002228210105889  0.7006488857576824
  0.7001508982846745  0.4998491017153285  0.9006612985138186
  0.7001508982846745  0.7001508982846745  0.0993387014861817
  0.6997771789894139  0.6997771789894139  0.2993511142423180
  0.6995113898157567  0.6995113898157567  0.5000000000000000
  0.6997771789894139  0.6997771789894139  0.7006488857576824
  0.7001508982846745  0.7001508982846745  0.9006612985138186
  0.7003758193431429  0.9003587025155815  0.0996215422818360
  0.6995703488206968  0.8994808427399800  0.3000538988939980
  0.6993866260642855  0.8993497060257273  0.5000000000000000
  0.6995703488206968  0.8994808427399800  0.6999461011060022
  0.7003758193431429  0.9003587025155815  0.9003784577181638
  0.8987051084880148  0.1000000000000014  0.1034571424331298
  0.8988096549347497  0.1000000000000014  0.3019079269084685
  0.8990369224610534  0.1000000000000014  0.5000000000000000
  0.8988096549347497  0.1000000000000014  0.6980920730915311
  0.8987051084880148  0.1000000000000014  0.8965428575668706
  0.9004316356870072  0.2995683643129886  0.0998723386080777
  0.8987085316872303  0.3012914683127660  0.3013983573386468
  0.8989233422223348  0.3010766577776610  0.5000000000000000
  0.8987085316872303  0.3012914683127660  0.6986016426613527
  0.9004316356870072  0.2995683643129886  0.9001276613919226
  0.9003587025155815  0.4996241806568598  0.0996215422818360
  0.8994808427399800  0.5004296511793059  0.3000538988939980
  0.8993497060257273  0.5006133739357174  0.5000000000000000
  0.8994808427399800  0.5004296511793059  0.6999461011060022
  0.9003587025155815  0.4996241806568598  0.9003784577181638
  0.9003587025155815  0.7003758193431429  0.0996215422818360
  0.8994808427399800  0.6995703488206968  0.3000538988939980
  0.8993497060257273  0.6993866260642855  0.5000000000000000
  0.8994808427399800  0.6995703488206968  0.6999461011060022
  0.9003587025155815  0.7003758193431429  0.9003784577181638
  0.9004316356870072  0.9004316356870072  0.0998723386080777
  0.8987085316872303  0.8987085316872303  0.3013983573386468
  0.8989233422223348  0.8989233422223348  0.5000000000000000
  0.8987085316872303  0.8987085316872303  0.6986016426613527
  0.9004316356870072  0.9004316356870072  0.9001276613919226
  0.1000000000000014  0.1000000000000014 -0.0000000000000000
 
  0.00000000E+00  0.00000000E+00  0.00000000E+00
  0.00000000E+00  0.00000000E+00  0.00000000E+00
  0.00000000E+00  0.00000000E+00  0.00000000E+00
  0.00000000E+00  0.00000000E+00  0.00000000E+00
  0.00000000E+00  0.00000000E+00  0.00000000E+00
  0.00000000E+00  0.00000000E+00  0.00000000E+00
  0.00000000E+00  0.00000000E+00  0.00000000E+00
  0.00000000E+00  0.00000000E+00  0.00000000E+00
  0.00000000E+00  0.00000000E+00  0.00000000E+00
  0.00000000E+00  0.00000000E+00  0.00000000E+00
  0.00000000E+00  0.00000000E+00  0.00000000E+00
  0.00000000E+00  0.00000000E+00  0.00000000E+00
  0.00000000E+00  0.00000000E+00  0.00000000E+00
  0.00000000E+00  0.00000000E+00  0.00000000E+00
  0.00000000E+00  0.00000000E+00  0.00000000E+00
  0.00000000E+00  0.00000000E+00  0.00000000E+00
  0.00000000E+00  0.00000000E+00  0.00000000E+00
  0.00000000E+00  0.00000000E+00  0.00000000E+00
  0.00000000E+00  0.00000000E+00  0.00000000E+00
  0.00000000E+00  0.00000000E+00  0.00000000E+00
  0.00000000E+00  0.00000000E+00  0.00000000E+00
  0.00000000E+00  0.00000000E+00  0.00000000E+00
  0.00000000E+00  0.00000000E+00  0.00000000E+00
  0.00000000E+00  0.00000000E+00  0.00000000E+00
  0.00000000E+00  0.00000000E+00  0.00000000E+00
  0.00000000E+00  0.00000000E+00  0.00000000E+00
  0.00000000E+00  0.00000000E+00  0.00000000E+00
  0.00000000E+00  0.00000000E+00  0.00000000E+00
  0.00000000E+00  0.00000000E+00  0.00000000E+00
  0.00000000E+00  0.00000000E+00  0.00000000E+00
  0.00000000E+00  0.00000000E+00  0.00000000E+00
  0.00000000E+00  0.00000000E+00  0.00000000E+00
  0.00000000E+00  0.00000000E+00  0.00000000E+00
  0.00000000E+00  0.00000000E+00  0.00000000E+00
  0.00000000E+00  0.00000000E+00  0.00000000E+00
  0.00000000E+00  0.00000000E+00  0.00000000E+00
  0.00000000E+00  0.00000000E+00  0.00000000E+00
  0.00000000E+00  0.00000000E+00  0.00000000E+00
  0.00000000E+00  0.00000000E+00  0.00000000E+00
  0.00000000E+00  0.00000000E+00  0.00000000E+00
  0.00000000E+00  0.00000000E+00  0.00000000E+00
  0.00000000E+00  0.00000000E+00  0.00000000E+00
  0.00000000E+00  0.00000000E+00  0.00000000E+00
  0.00000000E+00  0.00000000E+00  0.00000000E+00
  0.00000000E+00  0.00000000E+00  0.00000000E+00
  0.00000000E+00  0.00000000E+00  0.00000000E+00
  0.00000000E+00  0.00000000E+00  0.00000000E+00
  0.00000000E+00  0.00000000E+00  0.00000000E+00
  0.00000000E+00  0.00000000E+00  0.00000000E+00
  0.00000000E+00  0.00000000E+00  0.00000000E+00
  0.00000000E+00  0.00000000E+00  0.00000000E+00
  0.00000000E+00  0.00000000E+00  0.00000000E+00
  0.00000000E+00  0.00000000E+00  0.00000000E+00
  0.00000000E+00  0.00000000E+00  0.00000000E+00
  0.00000000E+00  0.00000000E+00  0.00000000E+00
  0.00000000E+00  0.00000000E+00  0.00000000E+00
  0.00000000E+00  0.00000000E+00  0.00000000E+00
  0.00000000E+00  0.00000000E+00  0.00000000E+00
  0.00000000E+00  0.00000000E+00  0.00000000E+00
  0.00000000E+00  0.00000000E+00  0.00000000E+00
  0.00000000E+00  0.00000000E+00  0.00000000E+00
  0.00000000E+00  0.00000000E+00  0.00000000E+00
  0.00000000E+00  0.00000000E+00  0.00000000E+00
  0.00000000E+00  0.00000000E+00  0.00000000E+00
  0.00000000E+00  0.00000000E+00  0.00000000E+00
  0.00000000E+00  0.00000000E+00  0.00000000E+00
  0.00000000E+00  0.00000000E+00  0.00000000E+00
  0.00000000E+00  0.00000000E+00  0.00000000E+00
  0.00000000E+00  0.00000000E+00  0.00000000E+00
  0.00000000E+00  0.00000000E+00  0.00000000E+00
  0.00000000E+00  0.00000000E+00  0.00000000E+00
  0.00000000E+00  0.00000000E+00  0.00000000E+00
  0.00000000E+00  0.00000000E+00  0.00000000E+00
  0.00000000E+00  0.00000000E+00  0.00000000E+00
  0.00000000E+00  0.00000000E+00  0.00000000E+00
  0.00000000E+00  0.00000000E+00  0.00000000E+00
  0.00000000E+00  0.00000000E+00  0.00000000E+00
  0.00000000E+00  0.00000000E+00  0.00000000E+00
  0.00000000E+00  0.00000000E+00  0.00000000E+00
  0.00000000E+00  0.00000000E+00  0.00000000E+00
  0.00000000E+00  0.00000000E+00  0.00000000E+00
  0.00000000E+00  0.00000000E+00  0.00000000E+00
  0.00000000E+00  0.00000000E+00  0.00000000E+00
  0.00000000E+00  0.00000000E+00  0.00000000E+00
  0.00000000E+00  0.00000000E+00  0.00000000E+00
  0.00000000E+00  0.00000000E+00  0.00000000E+00
  0.00000000E+00  0.00000000E+00  0.00000000E+00
  0.00000000E+00  0.00000000E+00  0.00000000E+00
  0.00000000E+00  0.00000000E+00  0.00000000E+00
  0.00000000E+00  0.00000000E+00  0.00000000E+00
  0.00000000E+00  0.00000000E+00  0.00000000E+00
  0.00000000E+00  0.00000000E+00  0.00000000E+00
  0.00000000E+00  0.00000000E+00  0.00000000E+00
  0.00000000E+00  0.00000000E+00  0.00000000E+00
  0.00000000E+00  0.00000000E+00  0.00000000E+00
  0.00000000E+00  0.00000000E+00  0.00000000E+00
  0.00000000E+00  0.00000000E+00  0.00000000E+00
  0.00000000E+00  0.00000000E+00  0.00000000E+00
  0.00000000E+00  0.00000000E+00  0.00000000E+00
  0.00000000E+00  0.00000000E+00  0.00000000E+00
  0.00000000E+00  0.00000000E+00  0.00000000E+00
  0.00000000E+00  0.00000000E+00  0.00000000E+00
  0.00000000E+00  0.00000000E+00  0.00000000E+00
  0.00000000E+00  0.00000000E+00  0.00000000E+00
  0.00000000E+00  0.00000000E+00  0.00000000E+00
  0.00000000E+00  0.00000000E+00  0.00000000E+00
  0.00000000E+00  0.00000000E+00  0.00000000E+00
  0.00000000E+00  0.00000000E+00  0.00000000E+00
  0.00000000E+00  0.00000000E+00  0.00000000E+00
  0.00000000E+00  0.00000000E+00  0.00000000E+00
  0.00000000E+00  0.00000000E+00  0.00000000E+00
  0.00000000E+00  0.00000000E+00  0.00000000E+00
  0.00000000E+00  0.00000000E+00  0.00000000E+00
  0.00000000E+00  0.00000000E+00  0.00000000E+00
  0.00000000E+00  0.00000000E+00  0.00000000E+00
  0.00000000E+00  0.00000000E+00  0.00000000E+00
  0.00000000E+00  0.00000000E+00  0.00000000E+00
  0.00000000E+00  0.00000000E+00  0.00000000E+00
  0.00000000E+00  0.00000000E+00  0.00000000E+00
  0.00000000E+00  0.00000000E+00  0.00000000E+00
  0.00000000E+00  0.00000000E+00  0.00000000E+00
  0.00000000E+00  0.00000000E+00  0.00000000E+00
  0.00000000E+00  0.00000000E+00  0.00000000E+00
  0.00000000E+00  0.00000000E+00  0.00000000E+00
  0.00000000E+00  0.00000000E+00  0.00000000E+00
  0.00000000E+00  0.00000000E+00  0.00000000E+00
  0.00000000E+00  0.00000000E+00  0.00000000E+00
  0.00000000E+00  0.00000000E+00  0.00000000E+00
  0.00000000E+00  0.00000000E+00  0.00000000E+00
  0.00000000E+00  0.00000000E+00  0.00000000E+00
  0.00000000E+00  0.00000000E+00  0.00000000E+00
  0.00000000E+00  0.00000000E+00  0.00000000E+00
  0.00000000E+00  0.00000000E+00  0.00000000E+00
  0.00000000E+00  0.00000000E+00  0.00000000E+00
  0.00000000E+00  0.00000000E+00  0.00000000E+00
  0.00000000E+00  0.00000000E+00  0.00000000E+00
  0.00000000E+00  0.00000000E+00  0.00000000E+00
  0.00000000E+00  0.00000000E+00  0.00000000E+00
  0.00000000E+00  0.00000000E+00  0.00000000E+00
  0.00000000E+00  0.00000000E+00  0.00000000E+00
  0.00000000E+00  0.00000000E+00  0.00000000E+00
  0.00000000E+00  0.00000000E+00  0.00000000E+00
  0.00000000E+00  0.00000000E+00  0.00000000E+00
  0.00000000E+00  0.00000000E+00  0.00000000E+00
  0.00000000E+00  0.00000000E+00  0.00000000E+00
  0.00000000E+00  0.00000000E+00  0.00000000E+00
  0.00000000E+00  0.00000000E+00  0.00000000E+00
  0.00000000E+00  0.00000000E+00  0.00000000E+00
  0.00000000E+00  0.00000000E+00  0.00000000E+00
  0.00000000E+00  0.00000000E+00  0.00000000E+00
  0.00000000E+00  0.00000000E+00  0.00000000E+00
  0.00000000E+00  0.00000000E+00  0.00000000E+00
  0.00000000E+00  0.00000000E+00  0.00000000E+00
  0.00000000E+00  0.00000000E+00  0.00000000E+00
  0.00000000E+00  0.00000000E+00  0.00000000E+00
  0.00000000E+00  0.00000000E+00  0.00000000E+00
  0.00000000E+00  0.00000000E+00  0.00000000E+00
  0.00000000E+00  0.00000000E+00  0.00000000E+00
  0.00000000E+00  0.00000000E+00  0.00000000E+00
  0.00000000E+00  0.00000000E+00  0.00000000E+00
  0.00000000E+00  0.00000000E+00  0.00000000E+00
  0.00000000E+00  0.00000000E+00  0.00000000E+00
  0.00000000E+00  0.00000000E+00  0.00000000E+00
  0.00000000E+00  0.00000000E+00  0.00000000E+00
  0.00000000E+00  0.00000000E+00  0.00000000E+00
  0.00000000E+00  0.00000000E+00  0.00000000E+00
  0.00000000E+00  0.00000000E+00  0.00000000E+00
  0.00000000E+00  0.00000000E+00  0.00000000E+00
  0.00000000E+00  0.00000000E+00  0.00000000E+00
  0.00000000E+00  0.00000000E+00  0.00000000E+00
  0.00000000E+00  0.00000000E+00  0.00000000E+00
  0.00000000E+00  0.00000000E+00  0.00000000E+00
  0.00000000E+00  0.00000000E+00  0.00000000E+00
  0.00000000E+00  0.00000000E+00  0.00000000E+00
  0.00000000E+00  0.00000000E+00  0.00000000E+00
  0.00000000E+00  0.00000000E+00  0.00000000E+00
  0.00000000E+00  0.00000000E+00  0.00000000E+00
  0.00000000E+00  0.00000000E+00  0.00000000E+00
  0.00000000E+00  0.00000000E+00  0.00000000E+00
  0.00000000E+00  0.00000000E+00  0.00000000E+00
  0.00000000E+00  0.00000000E+00  0.00000000E+00
  0.00000000E+00  0.00000000E+00  0.00000000E+00
  0.00000000E+00  0.00000000E+00  0.00000000E+00
  0.00000000E+00  0.00000000E+00  0.00000000E+00
  0.00000000E+00  0.00000000E+00  0.00000000E+00
  0.00000000E+00  0.00000000E+00  0.00000000E+00
  0.00000000E+00  0.00000000E+00  0.00000000E+00
  0.00000000E+00  0.00000000E+00  0.00000000E+00
  0.00000000E+00  0.00000000E+00  0.00000000E+00
  0.00000000E+00  0.00000000E+00  0.00000000E+00
  0.00000000E+00  0.00000000E+00  0.00000000E+00
  0.00000000E+00  0.00000000E+00  0.00000000E+00
  0.00000000E+00  0.00000000E+00  0.00000000E+00
  0.00000000E+00  0.00000000E+00  0.00000000E+00
  0.00000000E+00  0.00000000E+00  0.00000000E+00
  0.00000000E+00  0.00000000E+00  0.00000000E+00
  0.00000000E+00  0.00000000E+00  0.00000000E+00
  0.00000000E+00  0.00000000E+00  0.00000000E+00
  0.00000000E+00  0.00000000E+00  0.00000000E+00
  0.00000000E+00  0.00000000E+00  0.00000000E+00
  0.00000000E+00  0.00000000E+00  0.00000000E+00
  0.00000000E+00  0.00000000E+00  0.00000000E+00
  0.00000000E+00  0.00000000E+00  0.00000000E+00
  0.00000000E+00  0.00000000E+00  0.00000000E+00
  0.00000000E+00  0.00000000E+00  0.00000000E+00
  0.00000000E+00  0.00000000E+00  0.00000000E+00
  0.00000000E+00  0.00000000E+00  0.00000000E+00
  0.00000000E+00  0.00000000E+00  0.00000000E+00
  0.00000000E+00  0.00000000E+00  0.00000000E+00
  0.00000000E+00  0.00000000E+00  0.00000000E+00
  0.00000000E+00  0.00000000E+00  0.00000000E+00
  0.00000000E+00  0.00000000E+00  0.00000000E+00
  0.00000000E+00  0.00000000E+00  0.00000000E+00
  0.00000000E+00  0.00000000E+00  0.00000000E+00
  0.00000000E+00  0.00000000E+00  0.00000000E+00
  0.00000000E+00  0.00000000E+00  0.00000000E+00
  0.00000000E+00  0.00000000E+00  0.00000000E+00
  0.00000000E+00  0.00000000E+00  0.00000000E+00
  0.00000000E+00  0.00000000E+00  0.00000000E+00
  0.00000000E+00  0.00000000E+00  0.00000000E+00
  0.00000000E+00  0.00000000E+00  0.00000000E+00
  0.00000000E+00  0.00000000E+00  0.00000000E+00
  0.00000000E+00  0.00000000E+00  0.00000000E+00
  0.00000000E+00  0.00000000E+00  0.00000000E+00
  0.00000000E+00  0.00000000E+00  0.00000000E+00
  0.00000000E+00  0.00000000E+00  0.00000000E+00
  0.00000000E+00  0.00000000E+00  0.00000000E+00
  0.00000000E+00  0.00000000E+00  0.00000000E+00
  0.00000000E+00  0.00000000E+00  0.00000000E+00
  0.00000000E+00  0.00000000E+00  0.00000000E+00
  0.00000000E+00  0.00000000E+00  0.00000000E+00
  0.00000000E+00  0.00000000E+00  0.00000000E+00
  0.00000000E+00  0.00000000E+00  0.00000000E+00
  0.00000000E+00  0.00000000E+00  0.00000000E+00
  0.00000000E+00  0.00000000E+00  0.00000000E+00
  0.00000000E+00  0.00000000E+00  0.00000000E+00
  0.00000000E+00  0.00000000E+00  0.00000000E+00
  0.00000000E+00  0.00000000E+00  0.00000000E+00
  0.00000000E+00  0.00000000E+00  0.00000000E+00
  0.00000000E+00  0.00000000E+00  0.00000000E+00
  0.00000000E+00  0.00000000E+00  0.00000000E+00
  0.00000000E+00  0.00000000E+00  0.00000000E+00
  0.00000000E+00  0.00000000E+00  0.00000000E+00
  0.00000000E+00  0.00000000E+00  0.00000000E+00
  0.00000000E+00  0.00000000E+00  0.00000000E+00
  0.00000000E+00  0.00000000E+00  0.00000000E+00
  0.00000000E+00  0.00000000E+00  0.00000000E+00
  0.00000000E+00  0.00000000E+00  0.00000000E+00
  0.00000000E+00  0.00000000E+00  0.00000000E+00
  0.00000000E+00  0.00000000E+00  0.00000000E+00
  0.00000000E+00  0.00000000E+00  0.00000000E+00
