New structure
1.0
    14.5   0.0  0.0
    0.0  14.5   0.0
    0.0  0.0  14.5 
   N
  4
Cartesian
  0.000000000000000E+000  0.000000000000000E+000  0.000000000000000E+000
  1.1 0 0
  0.5 -0.5 2.5
  0.5  0.5 2.5
