New structure                           
   1.00000000000000     
    16.1980000000000004    0.0000000000000000    0.0000000000000000
     0.0000000000000000   16.1980000000000004    0.0000000000000000
     0.0000000000000000    0.0000000000000000   16.1980000000000004
   Al   N 
   256     1
Direct
 -0.0023816114472022 -0.0000000000000000  0.0000000000000000
 -0.0000994727170885  0.1250994727170885  0.1250994727170885
  0.1250000000000000 -0.0000000000000000  0.1273816114472022
  0.1250000000000000  0.1273816114472022  0.0000000000000000
 -0.0001421947020543 -0.0000000000000000  0.2503657444490727
  0.0001445369779830  0.1248554630220170  0.3750105683548334
  0.1250000000000000 -0.0000000000000000  0.3739716459308799
  0.1250000000000000  0.1251421947020543  0.2503657444490727
  0.0004181633169665 -0.0000000000000000  0.5000000000000000
  0.0001445369779830  0.1248554630220170  0.6249894316451666
  0.1250000000000000 -0.0000000000000000  0.6260283540691199
  0.1250000000000000  0.1245818366830335  0.5000000000000000
 -0.0001421947020543 -0.0000000000000000  0.7496342555509271
 -0.0000994727170885  0.1250994727170885  0.8749005272829113
  0.1250000000000000 -0.0000000000000000  0.8726183885527977
  0.1250000000000000  0.1251421947020543  0.7496342555509271
 -0.0001421947020543  0.2503657444490727  0.0000000000000000
  0.0001445369779830  0.3750105683548334  0.1248554630220170
  0.1250000000000000  0.2503657444490727  0.1251421947020543
  0.1250000000000000  0.3739716459308799  0.0000000000000000
  0.0003061613565401  0.2496954147672997  0.2496954147672997
 -0.0000357986271839  0.3749339152044872  0.3749339152044872
  0.1250000000000000  0.2497404874728734  0.3749552745683311
  0.1250000000000000  0.3749552745683311  0.2497404874728734
  0.0001586745424778  0.2496547544041093  0.5000000000000000
 -0.0000357986271839  0.3749339152044872  0.6250660847955127
  0.1250000000000000  0.2497404874728734  0.6250447254316688
  0.1250000000000000  0.3751820219061575  0.5000000000000000
  0.0003061613565401  0.2496954147672997  0.7503045852327003
  0.0001445369779830  0.3750105683548334  0.8751445369779829
  0.1250000000000000  0.2503657444490727  0.8748578052979457
  0.1250000000000000  0.3749552745683311  0.7502595125271264
  0.0004181633169665  0.5000000000000000  0.0000000000000000
  0.0001445369779830  0.6249894316451666  0.1248554630220170
  0.1250000000000000  0.5000000000000000  0.1245818366830335
  0.1250000000000000  0.6260283540691199  0.0000000000000000
  0.0001586745424778  0.5000000000000000  0.2496547544041093
 -0.0000357986271839  0.6250660847955127  0.3749339152044872
  0.1250000000000000  0.5000000000000000  0.3751820219061575
  0.1250000000000000  0.6250447254316688  0.2497404874728734
 -0.0001985584343384  0.5000000000000000  0.5000000000000000
 -0.0000357986271839  0.6250660847955127  0.6250660847955127
  0.1250000000000000  0.5000000000000000  0.6248179780938424
  0.1250000000000000  0.6248179780938424  0.5000000000000000
  0.0001586745424778  0.5000000000000000  0.7503452455958907
  0.0001445369779830  0.6249894316451666  0.8751445369779829
  0.1250000000000000  0.5000000000000000  0.8754181633169666
  0.1250000000000000  0.6250447254316688  0.7502595125271264
 -0.0001421947020543  0.7496342555509271  0.0000000000000000
 -0.0000994727170885  0.8749005272829113  0.1250994727170885
  0.1250000000000000  0.7496342555509271  0.1251421947020543
  0.1250000000000000  0.8726183885527977  0.0000000000000000
  0.0003061613565401  0.7503045852327003  0.2496954147672997
  0.0001445369779830  0.8751445369779829  0.3750105683548334
  0.1250000000000000  0.7502595125271264  0.3749552745683311
  0.1250000000000000  0.8748578052979457  0.2503657444490727
  0.0001586745424778  0.7503452455958907  0.5000000000000000
  0.0001445369779830  0.8751445369779829  0.6249894316451666
  0.1250000000000000  0.7502595125271264  0.6250447254316688
  0.1250000000000000  0.8754181633169666  0.5000000000000000
  0.0003061613565401  0.7503045852327003  0.7503045852327003
 -0.0000994727170885  0.8749005272829113  0.8749005272829113
  0.1250000000000000  0.7496342555509271  0.8748578052979457
  0.1250000000000000  0.8748578052979457  0.7496342555509271
  0.2523816114472022 -0.0000000000000000  0.0000000000000000
  0.2500994727170884  0.1250994727170885  0.1250994727170885
  0.3753657444490727 -0.0000000000000000  0.1251421947020543
  0.3753657444490727  0.1251421947020543  0.0000000000000000
  0.2501421947020542 -0.0000000000000000  0.2503657444490727
  0.2498554630220170  0.1248554630220170  0.3750105683548334
  0.3747404874728734 -0.0000000000000000  0.3749552745683311
  0.3746954147672996  0.1246938386434599  0.2496954147672997
  0.2495818366830335 -0.0000000000000000  0.5000000000000000
  0.2498554630220170  0.1248554630220170  0.6249894316451666
  0.3747404874728734 -0.0000000000000000  0.6250447254316688
  0.3746547544041093  0.1248413254575222  0.5000000000000000
  0.2501421947020542 -0.0000000000000000  0.7496342555509271
  0.2500994727170884  0.1250994727170885  0.8749005272829113
  0.3753657444490727 -0.0000000000000000  0.8748578052979457
  0.3746954147672996  0.1246938386434599  0.7503045852327003
  0.2501421947020542  0.2503657444490727  0.0000000000000000
  0.2498554630220170  0.3750105683548334  0.1248554630220170
  0.3746954147672996  0.2496954147672997  0.1246938386434599
  0.3747404874728734  0.3749552745683311  0.0000000000000000
  0.2496938386434600  0.2496954147672997  0.2496954147672997
  0.2500357986271838  0.3749339152044872  0.3749339152044872
  0.3748391478078119  0.2498391478078120  0.3748203863977730
  0.3748391478078119  0.3748203863977730  0.2498391478078120
  0.2498413254575222  0.2496547544041093  0.5000000000000000
  0.2500357986271838  0.3749339152044872  0.6250660847955127
  0.3748391478078119  0.2498391478078120  0.6251796136022270
  0.3748742618150461  0.3748165470588882  0.5000000000000000
  0.2496938386434600  0.2496954147672997  0.7503045852327003
  0.2498554630220170  0.3750105683548334  0.8751445369779829
  0.3746954147672996  0.2496954147672997  0.8753061613565400
  0.3748391478078119  0.3748203863977730  0.7501608521921882
  0.2495818366830335  0.5000000000000000  0.0000000000000000
  0.2498554630220170  0.6249894316451666  0.1248554630220170
  0.3746547544041093  0.5000000000000000  0.1248413254575222
  0.3747404874728734  0.6250447254316688  0.0000000000000000
  0.2498413254575222  0.5000000000000000  0.2496547544041093
  0.2500357986271838  0.6250660847955127  0.3749339152044872
  0.3748742618150461  0.5000000000000000  0.3748165470588882
  0.3748391478078119  0.6251796136022270  0.2498391478078120
  0.2501985584343384  0.5000000000000000  0.5000000000000000
  0.2500357986271838  0.6250660847955127  0.6250660847955127
  0.3748742618150461  0.5000000000000000  0.6251834529411117
  0.3748742618150461  0.6251834529411117  0.5000000000000000
  0.2498413254575222  0.5000000000000000  0.7503452455958907
  0.2498554630220170  0.6249894316451666  0.8751445369779829
  0.3746547544041093  0.5000000000000000  0.8751586745424775
  0.3748391478078119  0.6251796136022270  0.7501608521921882
  0.2501421947020542  0.7496342555509271  0.0000000000000000
  0.2500994727170884  0.8749005272829113  0.1250994727170885
  0.3746954147672996  0.7503045852327003  0.1246938386434599
  0.3753657444490727  0.8748578052979457  0.0000000000000000
  0.2496938386434600  0.7503045852327003  0.2496954147672997
  0.2498554630220170  0.8751445369779829  0.3750105683548334
  0.3748391478078119  0.7501608521921882  0.3748203863977730
  0.3746954147672996  0.8753061613565400  0.2496954147672997
  0.2498413254575222  0.7503452455958907  0.5000000000000000
  0.2498554630220170  0.8751445369779829  0.6249894316451666
  0.3748391478078119  0.7501608521921882  0.6251796136022270
  0.3746547544041093  0.8751586745424775  0.5000000000000000
  0.2496938386434600  0.7503045852327003  0.7503045852327003
  0.2500994727170884  0.8749005272829113  0.8749005272829113
  0.3746954147672996  0.7503045852327003  0.8753061613565400
  0.3746954147672996  0.8753061613565400  0.7503045852327003
  0.4989716459308799 -0.0000000000000000  0.0000000000000000
  0.5000105683548334  0.1248554630220170  0.1248554630220170
  0.6250000000000000 -0.0000000000000000  0.1245818366830335
  0.6250000000000000  0.1245818366830335  0.0000000000000000
  0.4999552745683311 -0.0000000000000000  0.2497404874728734
  0.4999339152044872  0.1250357986271839  0.3749339152044872
  0.6250000000000000 -0.0000000000000000  0.3751820219061575
  0.6250000000000000  0.1248413254575222  0.2496547544041093
  0.5001820219061576 -0.0000000000000000  0.5000000000000000
  0.4999339152044872  0.1250357986271839  0.6250660847955127
  0.6250000000000000 -0.0000000000000000  0.6248179780938424
  0.6250000000000000  0.1251985584343383  0.5000000000000000
  0.4999552745683311 -0.0000000000000000  0.7502595125271264
  0.5000105683548334  0.1248554630220170  0.8751445369779829
  0.6250000000000000 -0.0000000000000000  0.8754181633169666
  0.6250000000000000  0.1248413254575222  0.7503452455958907
  0.4999552745683311  0.2497404874728734  0.0000000000000000
  0.4999339152044872  0.3749339152044872  0.1250357986271839
  0.6250000000000000  0.2496547544041093  0.1248413254575222
  0.6250000000000000  0.3751820219061575  0.0000000000000000
  0.4998203863977730  0.2498391478078120  0.2498391478078120
  0.4999374623533767  0.3749374623533767  0.3749374623533767
  0.6250000000000000  0.2498742618150462  0.3748165470588882
  0.6250000000000000  0.3748165470588882  0.2498742618150462
  0.4998165470588882  0.2498742618150462  0.5000000000000000
  0.4999374623533767  0.3749374623533767  0.6250625376466235
  0.6250000000000000  0.2498742618150462  0.6251834529411117
  0.6250000000000000  0.3749400617526774  0.5000000000000000
  0.4998203863977730  0.2498391478078120  0.7501608521921882
  0.4999339152044872  0.3749339152044872  0.8749642013728159
  0.6250000000000000  0.2496547544041093  0.8751586745424775
  0.6250000000000000  0.3748165470588882  0.7501257381849538
  0.5001820219061576  0.5000000000000000  0.0000000000000000
  0.4999339152044872  0.6250660847955127  0.1250357986271839
  0.6250000000000000  0.5000000000000000  0.1251985584343383
  0.6250000000000000  0.6248179780938424  0.0000000000000000
  0.4998165470588882  0.5000000000000000  0.2498742618150462
  0.4999374623533767  0.6250625376466235  0.3749374623533767
  0.6250000000000000  0.5000000000000000  0.3749400617526774
  0.6250000000000000  0.6251834529411117  0.2498742618150462
  0.4999400617526773  0.5000000000000000  0.5000000000000000
  0.4999374623533767  0.6250625376466235  0.6250625376466235
  0.6250000000000000  0.5000000000000000  0.6250599382473226
  0.6250000000000000  0.6250599382473226  0.5000000000000000
  0.4998165470588882  0.5000000000000000  0.7501257381849538
  0.4999339152044872  0.6250660847955127  0.8749642013728159
  0.6250000000000000  0.5000000000000000  0.8748014415656616
  0.6250000000000000  0.6251834529411117  0.7501257381849538
  0.4999552745683311  0.7502595125271264  0.0000000000000000
  0.5000105683548334  0.8751445369779829  0.1248554630220170
  0.6250000000000000  0.7503452455958907  0.1248413254575222
  0.6250000000000000  0.8754181633169666  0.0000000000000000
  0.4998203863977730  0.7501608521921882  0.2498391478078120
  0.4999339152044872  0.8749642013728159  0.3749339152044872
  0.6250000000000000  0.7501257381849538  0.3748165470588882
  0.6250000000000000  0.8751586745424775  0.2496547544041093
  0.4998165470588882  0.7501257381849538  0.5000000000000000
  0.4999339152044872  0.8749642013728159  0.6250660847955127
  0.6250000000000000  0.7501257381849538  0.6251834529411117
  0.6250000000000000  0.8748014415656616  0.5000000000000000
  0.4998203863977730  0.7501608521921882  0.7501608521921882
  0.5000105683548334  0.8751445369779829  0.8751445369779829
  0.6250000000000000  0.7503452455958907  0.8751586745424775
  0.6250000000000000  0.8751586745424775  0.7503452455958907
  0.7510283540691199 -0.0000000000000000  0.0000000000000000
  0.7499894316451666  0.1248554630220170  0.1248554630220170
  0.8746342555509271 -0.0000000000000000  0.1251421947020543
  0.8746342555509271  0.1251421947020543  0.0000000000000000
  0.7500447254316688 -0.0000000000000000  0.2497404874728734
  0.7500660847955127  0.1250357986271839  0.3749339152044872
  0.8752595125271264 -0.0000000000000000  0.3749552745683311
  0.8753045852327003  0.1246938386434599  0.2496954147672997
  0.7498179780938424 -0.0000000000000000  0.5000000000000000
  0.7500660847955127  0.1250357986271839  0.6250660847955127
  0.8752595125271264 -0.0000000000000000  0.6250447254316688
  0.8753452455958907  0.1248413254575222  0.5000000000000000
  0.7500447254316688 -0.0000000000000000  0.7502595125271264
  0.7499894316451666  0.1248554630220170  0.8751445369779829
  0.8746342555509271 -0.0000000000000000  0.8748578052979457
  0.8753045852327003  0.1246938386434599  0.7503045852327003
  0.7500447254316688  0.2497404874728734  0.0000000000000000
  0.7500660847955127  0.3749339152044872  0.1250357986271839
  0.8753045852327003  0.2496954147672997  0.1246938386434599
  0.8752595125271264  0.3749552745683311  0.0000000000000000
  0.7501796136022270  0.2498391478078120  0.2498391478078120
  0.7500625376466235  0.3749374623533767  0.3749374623533767
  0.8751608521921882  0.2498391478078120  0.3748203863977730
  0.8751608521921882  0.3748203863977730  0.2498391478078120
  0.7501834529411117  0.2498742618150462  0.5000000000000000
  0.7500625376466235  0.3749374623533767  0.6250625376466235
  0.8751608521921882  0.2498391478078120  0.6251796136022270
  0.8751257381849538  0.3748165470588882  0.5000000000000000
  0.7501796136022270  0.2498391478078120  0.7501608521921882
  0.7500660847955127  0.3749339152044872  0.8749642013728159
  0.8753045852327003  0.2496954147672997  0.8753061613565400
  0.8751608521921882  0.3748203863977730  0.7501608521921882
  0.7498179780938424  0.5000000000000000  0.0000000000000000
  0.7500660847955127  0.6250660847955127  0.1250357986271839
  0.8753452455958907  0.5000000000000000  0.1248413254575222
  0.8752595125271264  0.6250447254316688  0.0000000000000000
  0.7501834529411117  0.5000000000000000  0.2498742618150462
  0.7500625376466235  0.6250625376466235  0.3749374623533767
  0.8751257381849538  0.5000000000000000  0.3748165470588882
  0.8751608521921882  0.6251796136022270  0.2498391478078120
  0.7500599382473226  0.5000000000000000  0.5000000000000000
  0.7500625376466235  0.6250625376466235  0.6250625376466235
  0.8751257381849538  0.5000000000000000  0.6251834529411117
  0.8751257381849538  0.6251834529411117  0.5000000000000000
  0.7501834529411117  0.5000000000000000  0.7501257381849538
  0.7500660847955127  0.6250660847955127  0.8749642013728159
  0.8753452455958907  0.5000000000000000  0.8751586745424775
  0.8751608521921882  0.6251796136022270  0.7501608521921882
  0.7500447254316688  0.7502595125271264  0.0000000000000000
  0.7499894316451666  0.8751445369779829  0.1248554630220170
  0.8753045852327003  0.7503045852327003  0.1246938386434599
  0.8746342555509271  0.8748578052979457  0.0000000000000000
  0.7501796136022270  0.7501608521921882  0.2498391478078120
  0.7500660847955127  0.8749642013728159  0.3749339152044872
  0.8751608521921882  0.7501608521921882  0.3748203863977730
  0.8753045852327003  0.8753061613565400  0.2496954147672997
  0.7501834529411117  0.7501257381849538  0.5000000000000000
  0.7500660847955127  0.8749642013728159  0.6250660847955127
  0.8751608521921882  0.7501608521921882  0.6251796136022270
  0.8753452455958907  0.8751586745424775  0.5000000000000000
  0.7501796136022270  0.7501608521921882  0.7501608521921882
  0.7499894316451666  0.8751445369779829  0.8751445369779829
  0.8753045852327003  0.7503045852327003  0.8753061613565400
  0.8753045852327003  0.8753061613565400  0.7503045852327003
  0.1250000000000000 -0.0000000000000000  0.0000000000000000
 
  0.00000000E+00  0.00000000E+00  0.00000000E+00
  0.00000000E+00  0.00000000E+00  0.00000000E+00
  0.00000000E+00  0.00000000E+00  0.00000000E+00
  0.00000000E+00  0.00000000E+00  0.00000000E+00
  0.00000000E+00  0.00000000E+00  0.00000000E+00
  0.00000000E+00  0.00000000E+00  0.00000000E+00
  0.00000000E+00  0.00000000E+00  0.00000000E+00
  0.00000000E+00  0.00000000E+00  0.00000000E+00
  0.00000000E+00  0.00000000E+00  0.00000000E+00
  0.00000000E+00  0.00000000E+00  0.00000000E+00
  0.00000000E+00  0.00000000E+00  0.00000000E+00
  0.00000000E+00  0.00000000E+00  0.00000000E+00
  0.00000000E+00  0.00000000E+00  0.00000000E+00
  0.00000000E+00  0.00000000E+00  0.00000000E+00
  0.00000000E+00  0.00000000E+00  0.00000000E+00
  0.00000000E+00  0.00000000E+00  0.00000000E+00
  0.00000000E+00  0.00000000E+00  0.00000000E+00
  0.00000000E+00  0.00000000E+00  0.00000000E+00
  0.00000000E+00  0.00000000E+00  0.00000000E+00
  0.00000000E+00  0.00000000E+00  0.00000000E+00
  0.00000000E+00  0.00000000E+00  0.00000000E+00
  0.00000000E+00  0.00000000E+00  0.00000000E+00
  0.00000000E+00  0.00000000E+00  0.00000000E+00
  0.00000000E+00  0.00000000E+00  0.00000000E+00
  0.00000000E+00  0.00000000E+00  0.00000000E+00
  0.00000000E+00  0.00000000E+00  0.00000000E+00
  0.00000000E+00  0.00000000E+00  0.00000000E+00
  0.00000000E+00  0.00000000E+00  0.00000000E+00
  0.00000000E+00  0.00000000E+00  0.00000000E+00
  0.00000000E+00  0.00000000E+00  0.00000000E+00
  0.00000000E+00  0.00000000E+00  0.00000000E+00
  0.00000000E+00  0.00000000E+00  0.00000000E+00
  0.00000000E+00  0.00000000E+00  0.00000000E+00
  0.00000000E+00  0.00000000E+00  0.00000000E+00
  0.00000000E+00  0.00000000E+00  0.00000000E+00
  0.00000000E+00  0.00000000E+00  0.00000000E+00
  0.00000000E+00  0.00000000E+00  0.00000000E+00
  0.00000000E+00  0.00000000E+00  0.00000000E+00
  0.00000000E+00  0.00000000E+00  0.00000000E+00
  0.00000000E+00  0.00000000E+00  0.00000000E+00
  0.00000000E+00  0.00000000E+00  0.00000000E+00
  0.00000000E+00  0.00000000E+00  0.00000000E+00
  0.00000000E+00  0.00000000E+00  0.00000000E+00
  0.00000000E+00  0.00000000E+00  0.00000000E+00
  0.00000000E+00  0.00000000E+00  0.00000000E+00
  0.00000000E+00  0.00000000E+00  0.00000000E+00
  0.00000000E+00  0.00000000E+00  0.00000000E+00
  0.00000000E+00  0.00000000E+00  0.00000000E+00
  0.00000000E+00  0.00000000E+00  0.00000000E+00
  0.00000000E+00  0.00000000E+00  0.00000000E+00
  0.00000000E+00  0.00000000E+00  0.00000000E+00
  0.00000000E+00  0.00000000E+00  0.00000000E+00
  0.00000000E+00  0.00000000E+00  0.00000000E+00
  0.00000000E+00  0.00000000E+00  0.00000000E+00
  0.00000000E+00  0.00000000E+00  0.00000000E+00
  0.00000000E+00  0.00000000E+00  0.00000000E+00
  0.00000000E+00  0.00000000E+00  0.00000000E+00
  0.00000000E+00  0.00000000E+00  0.00000000E+00
  0.00000000E+00  0.00000000E+00  0.00000000E+00
  0.00000000E+00  0.00000000E+00  0.00000000E+00
  0.00000000E+00  0.00000000E+00  0.00000000E+00
  0.00000000E+00  0.00000000E+00  0.00000000E+00
  0.00000000E+00  0.00000000E+00  0.00000000E+00
  0.00000000E+00  0.00000000E+00  0.00000000E+00
  0.00000000E+00  0.00000000E+00  0.00000000E+00
  0.00000000E+00  0.00000000E+00  0.00000000E+00
  0.00000000E+00  0.00000000E+00  0.00000000E+00
  0.00000000E+00  0.00000000E+00  0.00000000E+00
  0.00000000E+00  0.00000000E+00  0.00000000E+00
  0.00000000E+00  0.00000000E+00  0.00000000E+00
  0.00000000E+00  0.00000000E+00  0.00000000E+00
  0.00000000E+00  0.00000000E+00  0.00000000E+00
  0.00000000E+00  0.00000000E+00  0.00000000E+00
  0.00000000E+00  0.00000000E+00  0.00000000E+00
  0.00000000E+00  0.00000000E+00  0.00000000E+00
  0.00000000E+00  0.00000000E+00  0.00000000E+00
  0.00000000E+00  0.00000000E+00  0.00000000E+00
  0.00000000E+00  0.00000000E+00  0.00000000E+00
  0.00000000E+00  0.00000000E+00  0.00000000E+00
  0.00000000E+00  0.00000000E+00  0.00000000E+00
  0.00000000E+00  0.00000000E+00  0.00000000E+00
  0.00000000E+00  0.00000000E+00  0.00000000E+00
  0.00000000E+00  0.00000000E+00  0.00000000E+00
  0.00000000E+00  0.00000000E+00  0.00000000E+00
  0.00000000E+00  0.00000000E+00  0.00000000E+00
  0.00000000E+00  0.00000000E+00  0.00000000E+00
  0.00000000E+00  0.00000000E+00  0.00000000E+00
  0.00000000E+00  0.00000000E+00  0.00000000E+00
  0.00000000E+00  0.00000000E+00  0.00000000E+00
  0.00000000E+00  0.00000000E+00  0.00000000E+00
  0.00000000E+00  0.00000000E+00  0.00000000E+00
  0.00000000E+00  0.00000000E+00  0.00000000E+00
  0.00000000E+00  0.00000000E+00  0.00000000E+00
  0.00000000E+00  0.00000000E+00  0.00000000E+00
  0.00000000E+00  0.00000000E+00  0.00000000E+00
  0.00000000E+00  0.00000000E+00  0.00000000E+00
  0.00000000E+00  0.00000000E+00  0.00000000E+00
  0.00000000E+00  0.00000000E+00  0.00000000E+00
  0.00000000E+00  0.00000000E+00  0.00000000E+00
  0.00000000E+00  0.00000000E+00  0.00000000E+00
  0.00000000E+00  0.00000000E+00  0.00000000E+00
  0.00000000E+00  0.00000000E+00  0.00000000E+00
  0.00000000E+00  0.00000000E+00  0.00000000E+00
  0.00000000E+00  0.00000000E+00  0.00000000E+00
  0.00000000E+00  0.00000000E+00  0.00000000E+00
  0.00000000E+00  0.00000000E+00  0.00000000E+00
  0.00000000E+00  0.00000000E+00  0.00000000E+00
  0.00000000E+00  0.00000000E+00  0.00000000E+00
  0.00000000E+00  0.00000000E+00  0.00000000E+00
  0.00000000E+00  0.00000000E+00  0.00000000E+00
  0.00000000E+00  0.00000000E+00  0.00000000E+00
  0.00000000E+00  0.00000000E+00  0.00000000E+00
  0.00000000E+00  0.00000000E+00  0.00000000E+00
  0.00000000E+00  0.00000000E+00  0.00000000E+00
  0.00000000E+00  0.00000000E+00  0.00000000E+00
  0.00000000E+00  0.00000000E+00  0.00000000E+00
  0.00000000E+00  0.00000000E+00  0.00000000E+00
  0.00000000E+00  0.00000000E+00  0.00000000E+00
  0.00000000E+00  0.00000000E+00  0.00000000E+00
  0.00000000E+00  0.00000000E+00  0.00000000E+00
  0.00000000E+00  0.00000000E+00  0.00000000E+00
  0.00000000E+00  0.00000000E+00  0.00000000E+00
  0.00000000E+00  0.00000000E+00  0.00000000E+00
  0.00000000E+00  0.00000000E+00  0.00000000E+00
  0.00000000E+00  0.00000000E+00  0.00000000E+00
  0.00000000E+00  0.00000000E+00  0.00000000E+00
  0.00000000E+00  0.00000000E+00  0.00000000E+00
  0.00000000E+00  0.00000000E+00  0.00000000E+00
  0.00000000E+00  0.00000000E+00  0.00000000E+00
  0.00000000E+00  0.00000000E+00  0.00000000E+00
  0.00000000E+00  0.00000000E+00  0.00000000E+00
  0.00000000E+00  0.00000000E+00  0.00000000E+00
  0.00000000E+00  0.00000000E+00  0.00000000E+00
  0.00000000E+00  0.00000000E+00  0.00000000E+00
  0.00000000E+00  0.00000000E+00  0.00000000E+00
  0.00000000E+00  0.00000000E+00  0.00000000E+00
  0.00000000E+00  0.00000000E+00  0.00000000E+00
  0.00000000E+00  0.00000000E+00  0.00000000E+00
  0.00000000E+00  0.00000000E+00  0.00000000E+00
  0.00000000E+00  0.00000000E+00  0.00000000E+00
  0.00000000E+00  0.00000000E+00  0.00000000E+00
  0.00000000E+00  0.00000000E+00  0.00000000E+00
  0.00000000E+00  0.00000000E+00  0.00000000E+00
  0.00000000E+00  0.00000000E+00  0.00000000E+00
  0.00000000E+00  0.00000000E+00  0.00000000E+00
  0.00000000E+00  0.00000000E+00  0.00000000E+00
  0.00000000E+00  0.00000000E+00  0.00000000E+00
  0.00000000E+00  0.00000000E+00  0.00000000E+00
  0.00000000E+00  0.00000000E+00  0.00000000E+00
  0.00000000E+00  0.00000000E+00  0.00000000E+00
  0.00000000E+00  0.00000000E+00  0.00000000E+00
  0.00000000E+00  0.00000000E+00  0.00000000E+00
  0.00000000E+00  0.00000000E+00  0.00000000E+00
  0.00000000E+00  0.00000000E+00  0.00000000E+00
  0.00000000E+00  0.00000000E+00  0.00000000E+00
  0.00000000E+00  0.00000000E+00  0.00000000E+00
  0.00000000E+00  0.00000000E+00  0.00000000E+00
  0.00000000E+00  0.00000000E+00  0.00000000E+00
  0.00000000E+00  0.00000000E+00  0.00000000E+00
  0.00000000E+00  0.00000000E+00  0.00000000E+00
  0.00000000E+00  0.00000000E+00  0.00000000E+00
  0.00000000E+00  0.00000000E+00  0.00000000E+00
  0.00000000E+00  0.00000000E+00  0.00000000E+00
  0.00000000E+00  0.00000000E+00  0.00000000E+00
  0.00000000E+00  0.00000000E+00  0.00000000E+00
  0.00000000E+00  0.00000000E+00  0.00000000E+00
  0.00000000E+00  0.00000000E+00  0.00000000E+00
  0.00000000E+00  0.00000000E+00  0.00000000E+00
  0.00000000E+00  0.00000000E+00  0.00000000E+00
  0.00000000E+00  0.00000000E+00  0.00000000E+00
  0.00000000E+00  0.00000000E+00  0.00000000E+00
  0.00000000E+00  0.00000000E+00  0.00000000E+00
  0.00000000E+00  0.00000000E+00  0.00000000E+00
  0.00000000E+00  0.00000000E+00  0.00000000E+00
  0.00000000E+00  0.00000000E+00  0.00000000E+00
  0.00000000E+00  0.00000000E+00  0.00000000E+00
  0.00000000E+00  0.00000000E+00  0.00000000E+00
  0.00000000E+00  0.00000000E+00  0.00000000E+00
  0.00000000E+00  0.00000000E+00  0.00000000E+00
  0.00000000E+00  0.00000000E+00  0.00000000E+00
  0.00000000E+00  0.00000000E+00  0.00000000E+00
  0.00000000E+00  0.00000000E+00  0.00000000E+00
  0.00000000E+00  0.00000000E+00  0.00000000E+00
  0.00000000E+00  0.00000000E+00  0.00000000E+00
  0.00000000E+00  0.00000000E+00  0.00000000E+00
  0.00000000E+00  0.00000000E+00  0.00000000E+00
  0.00000000E+00  0.00000000E+00  0.00000000E+00
  0.00000000E+00  0.00000000E+00  0.00000000E+00
  0.00000000E+00  0.00000000E+00  0.00000000E+00
  0.00000000E+00  0.00000000E+00  0.00000000E+00
  0.00000000E+00  0.00000000E+00  0.00000000E+00
  0.00000000E+00  0.00000000E+00  0.00000000E+00
  0.00000000E+00  0.00000000E+00  0.00000000E+00
  0.00000000E+00  0.00000000E+00  0.00000000E+00
  0.00000000E+00  0.00000000E+00  0.00000000E+00
  0.00000000E+00  0.00000000E+00  0.00000000E+00
  0.00000000E+00  0.00000000E+00  0.00000000E+00
  0.00000000E+00  0.00000000E+00  0.00000000E+00
  0.00000000E+00  0.00000000E+00  0.00000000E+00
  0.00000000E+00  0.00000000E+00  0.00000000E+00
  0.00000000E+00  0.00000000E+00  0.00000000E+00
  0.00000000E+00  0.00000000E+00  0.00000000E+00
  0.00000000E+00  0.00000000E+00  0.00000000E+00
  0.00000000E+00  0.00000000E+00  0.00000000E+00
  0.00000000E+00  0.00000000E+00  0.00000000E+00
  0.00000000E+00  0.00000000E+00  0.00000000E+00
  0.00000000E+00  0.00000000E+00  0.00000000E+00
  0.00000000E+00  0.00000000E+00  0.00000000E+00
  0.00000000E+00  0.00000000E+00  0.00000000E+00
  0.00000000E+00  0.00000000E+00  0.00000000E+00
  0.00000000E+00  0.00000000E+00  0.00000000E+00
  0.00000000E+00  0.00000000E+00  0.00000000E+00
  0.00000000E+00  0.00000000E+00  0.00000000E+00
  0.00000000E+00  0.00000000E+00  0.00000000E+00
  0.00000000E+00  0.00000000E+00  0.00000000E+00
  0.00000000E+00  0.00000000E+00  0.00000000E+00
  0.00000000E+00  0.00000000E+00  0.00000000E+00
  0.00000000E+00  0.00000000E+00  0.00000000E+00
  0.00000000E+00  0.00000000E+00  0.00000000E+00
  0.00000000E+00  0.00000000E+00  0.00000000E+00
  0.00000000E+00  0.00000000E+00  0.00000000E+00
  0.00000000E+00  0.00000000E+00  0.00000000E+00
  0.00000000E+00  0.00000000E+00  0.00000000E+00
  0.00000000E+00  0.00000000E+00  0.00000000E+00
  0.00000000E+00  0.00000000E+00  0.00000000E+00
  0.00000000E+00  0.00000000E+00  0.00000000E+00
  0.00000000E+00  0.00000000E+00  0.00000000E+00
  0.00000000E+00  0.00000000E+00  0.00000000E+00
  0.00000000E+00  0.00000000E+00  0.00000000E+00
  0.00000000E+00  0.00000000E+00  0.00000000E+00
  0.00000000E+00  0.00000000E+00  0.00000000E+00
  0.00000000E+00  0.00000000E+00  0.00000000E+00
  0.00000000E+00  0.00000000E+00  0.00000000E+00
  0.00000000E+00  0.00000000E+00  0.00000000E+00
  0.00000000E+00  0.00000000E+00  0.00000000E+00
  0.00000000E+00  0.00000000E+00  0.00000000E+00
  0.00000000E+00  0.00000000E+00  0.00000000E+00
  0.00000000E+00  0.00000000E+00  0.00000000E+00
  0.00000000E+00  0.00000000E+00  0.00000000E+00
  0.00000000E+00  0.00000000E+00  0.00000000E+00
  0.00000000E+00  0.00000000E+00  0.00000000E+00
  0.00000000E+00  0.00000000E+00  0.00000000E+00
  0.00000000E+00  0.00000000E+00  0.00000000E+00
  0.00000000E+00  0.00000000E+00  0.00000000E+00
  0.00000000E+00  0.00000000E+00  0.00000000E+00
  0.00000000E+00  0.00000000E+00  0.00000000E+00
  0.00000000E+00  0.00000000E+00  0.00000000E+00
  0.00000000E+00  0.00000000E+00  0.00000000E+00
  0.00000000E+00  0.00000000E+00  0.00000000E+00
  0.00000000E+00  0.00000000E+00  0.00000000E+00
  0.00000000E+00  0.00000000E+00  0.00000000E+00
  0.00000000E+00  0.00000000E+00  0.00000000E+00
  0.00000000E+00  0.00000000E+00  0.00000000E+00
  0.00000000E+00  0.00000000E+00  0.00000000E+00
  0.00000000E+00  0.00000000E+00  0.00000000E+00
  0.00000000E+00  0.00000000E+00  0.00000000E+00
  0.00000000E+00  0.00000000E+00  0.00000000E+00
