New structure                           
   1.00000000000000     
    14.5000000000000000    0.0000000000000000    0.0000000000000000
     0.0000000000000000   14.5000000000000000    0.0000000000000000
     0.0000000000000000    0.0000000000000000   14.5000000000000000
   N 
    10
Direct
 -0.0201063584719268 -0.0240680747882762 -0.0651335091847405
  0.0456944072970420 -0.0648012537939499 -0.0654740856997443
  0.0306000354999585  0.9617139130319308  0.2048060099801373
  0.0306682275422063  0.0390272731257550  0.2011376727030383
  0.1923490064980611  0.1408800201439289  0.0195994039499186
  0.1411701127245284  0.1563494128561558 -0.0363496985883892
  0.1392389050646505  0.4280318805499608  0.0123969046562155
  0.1390553890845756  0.3895584480809102  0.0795423274183777
  0.1326656291904365  0.2041274200543176  0.3429634534208766
  0.2100439559153121  0.2036637193599558  0.3409942799650078
 
  0.00000000E+00  0.00000000E+00  0.00000000E+00
  0.00000000E+00  0.00000000E+00  0.00000000E+00
  0.00000000E+00  0.00000000E+00  0.00000000E+00
  0.00000000E+00  0.00000000E+00  0.00000000E+00
  0.00000000E+00  0.00000000E+00  0.00000000E+00
  0.00000000E+00  0.00000000E+00  0.00000000E+00
  0.00000000E+00  0.00000000E+00  0.00000000E+00
  0.00000000E+00  0.00000000E+00  0.00000000E+00
  0.00000000E+00  0.00000000E+00  0.00000000E+00
  0.00000000E+00  0.00000000E+00  0.00000000E+00
