New structure                           
   1.00000000000000     
     0.0000000000000000  -15.1462217587961998    0.0000000000000000
     0.0000000000000000   -7.5731108793980804  -13.1170128144700993
    29.0000000000000000    0.0000000000000000    0.0000000000000000
   Ni   N 
   252     1
Direct
  0.4444430385771625  0.4444472561790039  0.1046169381946574
  0.4444429911538735  0.7777743436257508  0.1045566488984617
  0.4443869614151965  0.1111255681852317  0.1045457028864729
  0.7777990334673560  0.4444392798076356  0.1044948156827289
  0.7777918530026264  0.7777496273280823  0.1045360565846429
  0.7778208037329072  0.1111255681852317  0.1045457028864729
  0.1110950200583441  0.4444392798076356  0.1044948156827289
  0.1111159985537112  0.7777743436257508  0.1045566488984617
  0.1110963508891726  0.1111406315549976  0.1045081040101559
  0.5555204111574166  0.5555303417559980  0.1735626140266074
  0.5554916668341341  0.8888529528092196  0.1734978933848447
  0.5554648171368700  0.2224036990595957  0.1735546166423062
  0.8889308836817306  0.5554715659698671  0.1734899323249758
  0.8889887136899747  0.8888529528092196  0.1734978933848447
  0.8888862761688923  0.2222584211269329  0.1734813470015511
  0.2222825804199214  0.5555303417559980  0.1735626140266074
  0.2222347736408428  0.8888637860516428  0.1734723097249758
  0.2221886360375034  0.2222584211269329  0.1734813470015511
  0.6666015406584270  0.6666375242367248  0.2427044345991937
  0.6666728357880157 -0.0000123382427024  0.2426644893186574
  0.6666056583012107  0.3334162680285230  0.2427368888307678
  0.0000942684381764  0.6666375242367248  0.2427044345991937
 -0.0000125503418974 -0.0000470057793220  0.2426694981265901
 -0.0000268590774916  0.3333870514883189  0.2426827878607208
  0.3333744286977628  0.6665844759378100  0.2428942334750449
  0.3333928894545551 -0.0000470057793220  0.2426694981265901
  0.3333114070036023  0.3334162680285230  0.2427368888307678
  0.7777778425532580  0.7777776482268193  0.3116574760434934
  0.7777750173786280  0.1110849417967246  0.3116408431951385
  0.7777623154242571  0.4444429364258662  0.3116548592240638
  0.1113021328798608  0.7776624830821297  0.3117371705440314
  0.1111225462392402  0.1110882408548623  0.3116653399086510
  0.1111280814832125  0.4444429364258662  0.3116548592240638
  0.4443687173713451  0.7776624830821297  0.3117371705440314
  0.4444733741579830  0.1110849417967246  0.3116408431951385
  0.4443168341405986  0.4446996650521314  0.3121183527429631
  0.8890156414034062  0.8887327634096563  0.3808462850423368
  0.8888302982822202  0.2222211556937449  0.3808653585082082
  0.8888333945467084  0.5556665442399117  0.3808091620520510
  0.2222396848556158  0.8888539636220971  0.3808981951389887
  0.2222818793573635  0.2222211556937449  0.3808653585082082
  0.2222938093826466  0.5556016964201412  0.3812755426479094
  0.5555849285202661  0.8887327634096563  0.3808462850423368
  0.5554469712472724  0.2224393908387907  0.3808805004684682
  0.5554378275305480  0.5556016964201412  0.3812755426479094
 -0.0003065392633241  0.0000273334634087  0.4499850182718709
 -0.0000041176628188  0.3333415686589734  0.4500775516209068
  0.0002370610369417  0.6666706820581239  0.4499943485029149
  0.3336125391332510  0.0000273334634087  0.4499850182718709
  0.3333206840377648  0.3330485124483047  0.4501007179057230
  0.3332473579574740  0.6668386174183878  0.4509151988659220
  0.6666454460138599  0.0000424413056089  0.4500718576695724
  0.6669641368472660  0.3330485124483047  0.4501007179057230
  0.6664255902382632  0.6666706820581239  0.4499943485029149
  0.1109202773331889  0.1114927786669651  0.5187039193881444
  0.1100439484391092  0.4442948024062279  0.5185461990974862
  0.1099565064369009  0.7789366894797227  0.5186143413665859
  0.4446372444402136  0.1104096156758525  0.5184827570821352
  0.4461194497983267  0.4410944337366752  0.5232001005421251
  0.4444401374167117  0.7789366894797227  0.5186143413665859
  0.7782864732172696  0.1104096156758525  0.5184827570821352
  0.7789945824879987  0.4442948024062279  0.5185461990974862
  0.7777178970167682  0.7778975392997993  0.5186151080147482
  0.2777726131409713  0.2777616867250084  0.1044948156827289
  0.2777805895123396  0.6111097052438335  0.1046169381946574
  0.2777726131409713  0.9444657001340203  0.1044948156827289
  0.6111076769590865  0.2777826652203754  0.1045566488984617
  0.6111076769590865  0.6111096578205448  0.1045566488984617
  0.6110829606614180  0.9444585196692907  0.1045360565846429
  0.9444739648883262  0.2777630175558369  0.1045081040101559
  0.9444589015185604  0.6110536280818676  0.1045457028864729
  0.9444589015185604  0.9444874703995715  0.1045457028864729
  0.3888636750893267  0.3889492470865858  0.1735626140266074
  0.3888636750893267  0.7221870778240809  0.1735626140266074
  0.3888048993031955  0.0555975503484022  0.1734899323249758
  0.7221971193849785  0.3889014403075072  0.1734723097249758
  0.7221862861425553  0.7221583335007984  0.1734978933848447
  0.7221862861425553  0.0556553803566464  0.1734978933848447
  0.0555917544602686  0.3888553027041676  0.1734813470015511
  0.0557370323929314  0.7221314838035343  0.1735546166423062
  0.0555917544602686  0.0555529428355639  0.1734813470015511
  0.4999178092711457  0.5000410953644272  0.2428942334750449
  0.4999708575700604  0.8332682073250984  0.2427044345991937
  0.4999708575700604  0.1667609351048407  0.2427044345991937
  0.8332863275540137  0.5000595561212194  0.2426694981265901
  0.8333209950906334  0.8333395024546871  0.2426644893186574
  0.8332863275540137  0.1666541163247668  0.2426694981265901
  0.1667496013618515  0.4999780736702667  0.2427368888307678
  0.1667496013618515  0.8332723249678821  0.2427368888307678
  0.1667203848216474  0.1666398075891727  0.2426827878607208
  0.6109958164154654  0.6110353840380167  0.3117371705440314
  0.6111109815601550  0.9444445092199223  0.3116574760434934
  0.6109958164154654  0.2779687995465250  0.3117371705440314
  0.9444182751300529  0.6111400408246546  0.3116408431951385
  0.9444182751300529  0.9444416840452923  0.3116408431951385
  0.9444215741881911  0.2777892129059045  0.3116653399086510
  0.2780329983854671  0.6109835008072699  0.3121183527429631
  0.2777762697592019  0.9444289820909214  0.3116548592240638
  0.2777762697592019  0.2777947481498769  0.3116548592240638
  0.7220660967429920  0.7222515951869304  0.3808462850423368
  0.7220660967429920  0.0556823080700775  0.3808462850423368
  0.7221872969554328  0.3889063515222800  0.3808981951389887
  0.0557727241721264  0.7221136379139367  0.3808805004684682
  0.0555544890270806  0.0554969649488916  0.3808653585082082
  0.0555544890270806  0.3889485460240277  0.3808653585082082
  0.3889350297534697  0.7221044941972123  0.3812755426479094
  0.3889998775732403  0.0555000612133798  0.3808091620520510
  0.3889350297534697  0.3889604760493109  0.3812755426479094
  0.8333757746389443  0.8333121126805313  0.4500718576695724
  0.8333606667967443  0.1663601274033401  0.4499850182718709
  0.8333606667967443  0.5002792057999152  0.4499850182718709
  0.1663818457816333  0.8336308035139374  0.4501007179057230
  0.1666749019923018  0.1666625490038454  0.4500775516209068
  0.1663818457816333  0.4999873507044290  0.4501007179057230
  0.5000040153914592  0.8330922569049346  0.4499943485029149
  0.5000040153914592  0.1669037277036060  0.4499943485029149
  0.5001719507517236  0.4999140246241383  0.4509151988659220
  0.9437429490091813  0.9449531398839339  0.5184827570821352
  0.9448261120002936  0.2775869439998532  0.5187039193881444
  0.9437429490091813  0.6113039111068852  0.5184827570821352
  0.2776281357395636  0.9456612491546630  0.5185461990974862
  0.2776281357395636  0.2767106151057735  0.5185461990974862
  0.2744277670700109  0.6127861164649980  0.5232001005421251
  0.6112308726331350  0.9443845636834325  0.5186151080147482
  0.6122700228130584  0.2766231731035652  0.5186143413665859
  0.6122700228130584  0.6111068040833835  0.5186143413665859
  0.2777910613092350  0.4444577279758993  0.1045355990787837
  0.2777910613092350  0.7777512107148656  0.1045355990787837
  0.2777481712598983  0.1111259143700543  0.1045280020137528
  0.6110845440482013  0.4444577279758993  0.1045355990787837
  0.6110818231295267  0.7777484897961910  0.1045510250433116
  0.6110818231295267  0.1111696870742894  0.1045510250433116
  0.9444592477033827  0.4444148379265626  0.1045280020137528
  0.9445030204076179  0.7777484897961910  0.1045510250433116
  0.9444592477033827  0.1111259143700543  0.1045280020137528
  0.3888888888888857  0.5555555555555571  0.1736078916694833
  0.3888319690261837  0.8888352616030427  0.1734934828152469
  0.3888319690261837  0.2223327693707664  0.1734934828152469
  0.7221685949363784  0.5554986356928551  0.1734934828152469
  0.7222222222222214  0.8888888888888857  0.1734610402501259
  0.7221685949363784  0.2223327693707664  0.1734934828152469
  0.0556661027041021  0.5554986356928551  0.1734934828152469
  0.0556661027041021  0.8888352616030427  0.1734934828152469
  0.0555555555555571  0.2222222222222214  0.1735170036452307
  0.4998834652484307  0.6665501319150947  0.2428542705253063
  0.5000427073711131 -0.0000213536855566  0.2426527308197922
  0.4998834652484307  0.3335664028364745  0.2428542705253063
  0.8333119796477788  0.6667093740377773  0.2426527308197922
  0.8333119796477788 -0.0000213536855566  0.2426527308197922
  0.8332804527564152  0.3333597736217960  0.2426820510507437
  0.1668997361698031  0.6665501319150947  0.2428542705253063
  0.1666931069551245 -0.0000528805769205  0.2426820510507437
  0.1666931069551245  0.3333597736217960  0.2426820510507437
  0.6110949421187782  0.7777616087854425  0.3116181383638916
  0.6110949421187782  0.1111434490957862  0.3116181383638916
  0.6109728447762938  0.4445135776118531  0.3118484896847465
  0.9444767824291148  0.7777616087854425  0.3116181383638916
  0.9444244692391494  0.1110911359058206  0.3116657204997015
  0.9444244692391494  0.4444843948550302  0.3116657204997015
  0.2778469109451888  0.7776395114429581  0.3118484896847465
  0.2778177281883659  0.1110911359058206  0.3116657204997015
  0.2778469109451888  0.4445135776118531  0.3118484896847465
  0.7222222222222214  0.8888888888888857  0.3808723810551091
  0.7221226025772408  0.2222913701748253  0.3808114793296881
  0.7221226025772408  0.5555860272479340  0.3808114793296881
  0.0556247035081611  0.8887892692439051  0.3808114793296881
  0.0555555555555571  0.2222222222222214  0.3808780093150826
  0.0556247035081611  0.5555860272479340  0.3808114793296881
  0.3889193605812625  0.8887892692439051  0.3808114793296881
  0.3889193605812625  0.2222913701748253  0.3808114793296881
  0.3888888888888857  0.5555555555555571  0.3818789438196869
  0.8331509218183909 -0.0001824115149451  0.4499638745426289
  0.8336105057848764  0.3331947471075654  0.4500989696753211
  0.8331509218183909  0.6670314896965548  0.4499638745426289
  0.1665280804408939  0.0002771724515408  0.4500989696753211
  0.1665280804408939  0.3331947471075654  0.4500989696753211
  0.1677662769397453  0.6661168615301236  0.4510399470180879
  0.5003648230298905 -0.0001824115149451  0.4499638745426289
  0.4994501948634595  0.3344329436064166  0.4510399470180879
  0.4994501948634595  0.6661168615301236  0.4510399470180879
  0.9444889161467075  0.1111555828133791  0.5185314931946791
  0.9444889161467075  0.4443555010399132  0.5185314931946791
  0.9441440326676642  0.7779279836661680  0.5185732667664239
  0.2776888343732489  0.1111555828133791  0.5185314931946791
  0.2753298632970680  0.4419965299637323  0.5183414260305117
  0.2753298632970680  0.7826736067391997  0.5183414260305117
  0.6112613169995037  0.1108106993343354  0.5185732667664239
  0.6160069400725354  0.4419965299637323  0.5183414260305117
  0.6112613169995037  0.7779279836661680  0.5185732667664239
  0.4444429911538735  0.2777826652203754  0.1045566488984617
  0.4444430385771625  0.6111097052438335  0.1046169381946574
  0.4443869614151965  0.9444874703995715  0.1045457028864729
  0.7777990334673560  0.2777616867250084  0.1044948156827289
  0.7778208037329072  0.6110536280818676  0.1045457028864729
  0.7777918530026264  0.9444585196692907  0.1045360565846429
  0.1110963508891726  0.2777630175558369  0.1045081040101559
  0.1111159985537112  0.6111096578205448  0.1045566488984617
  0.1110950200583441  0.9444657001340203  0.1044948156827289
  0.5555204111574166  0.3889492470865858  0.1735626140266074
  0.5554648171368700  0.7221314838035343  0.1735546166423062
  0.5554916668341341  0.0556553803566464  0.1734978933848447
  0.8888862761688923  0.3888553027041676  0.1734813470015511
  0.8889887136899747  0.7221583335007984  0.1734978933848447
  0.8889308836817306  0.0555975503484022  0.1734899323249758
  0.2222347736408428  0.3889014403075072  0.1734723097249758
  0.2222825804199214  0.7221870778240809  0.1735626140266074
  0.2221886360375034  0.0555529428355639  0.1734813470015511
  0.6666056583012107  0.4999780736702667  0.2427368888307678
  0.6666728357880157  0.8333395024546871  0.2426644893186574
  0.6666015406584270  0.1667609351048407  0.2427044345991937
 -0.0000125503418974  0.5000595561212194  0.2426694981265901
  0.0000942684381764  0.8332682073250984  0.2427044345991937
 -0.0000268590774916  0.1666398075891727  0.2426827878607208
  0.3333744286977628  0.5000410953644272  0.2428942334750449
  0.3333114070036023  0.8332723249678821  0.2427368888307678
  0.3333928894545551  0.1666541163247668  0.2426694981265901
  0.7777750173786280  0.6111400408246546  0.3116408431951385
  0.7777778425532580  0.9444445092199223  0.3116574760434934
  0.7777623154242571  0.2777947481498769  0.3116548592240638
  0.1113021328798608  0.6110353840380167  0.3117371705440314
  0.1111280814832125  0.9444289820909214  0.3116548592240638
  0.1111225462392402  0.2777892129059045  0.3116653399086510
  0.4443168341405986  0.6109835008072699  0.3121183527429631
  0.4444733741579830  0.9444416840452923  0.3116408431951385
  0.4443687173713451  0.2779687995465250  0.3117371705440314
  0.8890156414034062  0.7222515951869304  0.3808462850423368
  0.8888333945467084  0.0555000612133798  0.3808091620520510
  0.8888302982822202  0.3889485460240277  0.3808653585082082
  0.2222938093826466  0.7221044941972123  0.3812755426479094
  0.2222818793573635  0.0554969649488916  0.3808653585082082
  0.2222396848556158  0.3889063515222800  0.3808981951389887
  0.5554469712472724  0.7221136379139367  0.3808805004684682
  0.5555849285202661  0.0556823080700775  0.3808462850423368
  0.5554378275305480  0.3889604760493109  0.3812755426479094
  0.0002370610369417  0.8330922569049346  0.4499943485029149
 -0.0000041176628188  0.1666625490038454  0.4500775516209068
 -0.0003065392633241  0.5002792057999152  0.4499850182718709
  0.3333206840377648  0.8336308035139374  0.4501007179057230
  0.3336125391332510  0.1663601274033401  0.4499850182718709
  0.3332473579574740  0.4999140246241383  0.4509151988659220
  0.6666454460138599  0.8333121126805313  0.4500718576695724
  0.6664255902382632  0.1669037277036060  0.4499943485029149
  0.6669641368472660  0.4999873507044290  0.4501007179057230
  0.1100439484391092  0.9456612491546630  0.5185461990974862
  0.1109202773331889  0.2775869439998532  0.5187039193881444
  0.1099565064369009  0.6111068040833835  0.5186143413665859
  0.4446372444402136  0.9449531398839339  0.5184827570821352
  0.4444401374167117  0.2766231731035652  0.5186143413665859
  0.4461194497983267  0.6127861164649980  0.5232001005421251
  0.7777178970167682  0.9443845636834325  0.5186151080147482
  0.7789945824879987  0.2767106151057735  0.5185461990974862
  0.7782864732172696  0.6113039111068852  0.5184827570821352
  0.3888888888888857  0.5555555555555571  0.5535686905242690
 
  0.00000000E+00  0.00000000E+00  0.00000000E+00
  0.00000000E+00  0.00000000E+00  0.00000000E+00
  0.00000000E+00  0.00000000E+00  0.00000000E+00
  0.00000000E+00  0.00000000E+00  0.00000000E+00
  0.00000000E+00  0.00000000E+00  0.00000000E+00
  0.00000000E+00  0.00000000E+00  0.00000000E+00
  0.00000000E+00  0.00000000E+00  0.00000000E+00
  0.00000000E+00  0.00000000E+00  0.00000000E+00
  0.00000000E+00  0.00000000E+00  0.00000000E+00
  0.00000000E+00  0.00000000E+00  0.00000000E+00
  0.00000000E+00  0.00000000E+00  0.00000000E+00
  0.00000000E+00  0.00000000E+00  0.00000000E+00
  0.00000000E+00  0.00000000E+00  0.00000000E+00
  0.00000000E+00  0.00000000E+00  0.00000000E+00
  0.00000000E+00  0.00000000E+00  0.00000000E+00
  0.00000000E+00  0.00000000E+00  0.00000000E+00
  0.00000000E+00  0.00000000E+00  0.00000000E+00
  0.00000000E+00  0.00000000E+00  0.00000000E+00
  0.00000000E+00  0.00000000E+00  0.00000000E+00
  0.00000000E+00  0.00000000E+00  0.00000000E+00
  0.00000000E+00  0.00000000E+00  0.00000000E+00
  0.00000000E+00  0.00000000E+00  0.00000000E+00
  0.00000000E+00  0.00000000E+00  0.00000000E+00
  0.00000000E+00  0.00000000E+00  0.00000000E+00
  0.00000000E+00  0.00000000E+00  0.00000000E+00
  0.00000000E+00  0.00000000E+00  0.00000000E+00
  0.00000000E+00  0.00000000E+00  0.00000000E+00
  0.00000000E+00  0.00000000E+00  0.00000000E+00
  0.00000000E+00  0.00000000E+00  0.00000000E+00
  0.00000000E+00  0.00000000E+00  0.00000000E+00
  0.00000000E+00  0.00000000E+00  0.00000000E+00
  0.00000000E+00  0.00000000E+00  0.00000000E+00
  0.00000000E+00  0.00000000E+00  0.00000000E+00
  0.00000000E+00  0.00000000E+00  0.00000000E+00
  0.00000000E+00  0.00000000E+00  0.00000000E+00
  0.00000000E+00  0.00000000E+00  0.00000000E+00
  0.00000000E+00  0.00000000E+00  0.00000000E+00
  0.00000000E+00  0.00000000E+00  0.00000000E+00
  0.00000000E+00  0.00000000E+00  0.00000000E+00
  0.00000000E+00  0.00000000E+00  0.00000000E+00
  0.00000000E+00  0.00000000E+00  0.00000000E+00
  0.00000000E+00  0.00000000E+00  0.00000000E+00
  0.00000000E+00  0.00000000E+00  0.00000000E+00
  0.00000000E+00  0.00000000E+00  0.00000000E+00
  0.00000000E+00  0.00000000E+00  0.00000000E+00
  0.00000000E+00  0.00000000E+00  0.00000000E+00
  0.00000000E+00  0.00000000E+00  0.00000000E+00
  0.00000000E+00  0.00000000E+00  0.00000000E+00
  0.00000000E+00  0.00000000E+00  0.00000000E+00
  0.00000000E+00  0.00000000E+00  0.00000000E+00
  0.00000000E+00  0.00000000E+00  0.00000000E+00
  0.00000000E+00  0.00000000E+00  0.00000000E+00
  0.00000000E+00  0.00000000E+00  0.00000000E+00
  0.00000000E+00  0.00000000E+00  0.00000000E+00
  0.00000000E+00  0.00000000E+00  0.00000000E+00
  0.00000000E+00  0.00000000E+00  0.00000000E+00
  0.00000000E+00  0.00000000E+00  0.00000000E+00
  0.00000000E+00  0.00000000E+00  0.00000000E+00
  0.00000000E+00  0.00000000E+00  0.00000000E+00
  0.00000000E+00  0.00000000E+00  0.00000000E+00
  0.00000000E+00  0.00000000E+00  0.00000000E+00
  0.00000000E+00  0.00000000E+00  0.00000000E+00
  0.00000000E+00  0.00000000E+00  0.00000000E+00
  0.00000000E+00  0.00000000E+00  0.00000000E+00
  0.00000000E+00  0.00000000E+00  0.00000000E+00
  0.00000000E+00  0.00000000E+00  0.00000000E+00
  0.00000000E+00  0.00000000E+00  0.00000000E+00
  0.00000000E+00  0.00000000E+00  0.00000000E+00
  0.00000000E+00  0.00000000E+00  0.00000000E+00
  0.00000000E+00  0.00000000E+00  0.00000000E+00
  0.00000000E+00  0.00000000E+00  0.00000000E+00
  0.00000000E+00  0.00000000E+00  0.00000000E+00
  0.00000000E+00  0.00000000E+00  0.00000000E+00
  0.00000000E+00  0.00000000E+00  0.00000000E+00
  0.00000000E+00  0.00000000E+00  0.00000000E+00
  0.00000000E+00  0.00000000E+00  0.00000000E+00
  0.00000000E+00  0.00000000E+00  0.00000000E+00
  0.00000000E+00  0.00000000E+00  0.00000000E+00
  0.00000000E+00  0.00000000E+00  0.00000000E+00
  0.00000000E+00  0.00000000E+00  0.00000000E+00
  0.00000000E+00  0.00000000E+00  0.00000000E+00
  0.00000000E+00  0.00000000E+00  0.00000000E+00
  0.00000000E+00  0.00000000E+00  0.00000000E+00
  0.00000000E+00  0.00000000E+00  0.00000000E+00
  0.00000000E+00  0.00000000E+00  0.00000000E+00
  0.00000000E+00  0.00000000E+00  0.00000000E+00
  0.00000000E+00  0.00000000E+00  0.00000000E+00
  0.00000000E+00  0.00000000E+00  0.00000000E+00
  0.00000000E+00  0.00000000E+00  0.00000000E+00
  0.00000000E+00  0.00000000E+00  0.00000000E+00
  0.00000000E+00  0.00000000E+00  0.00000000E+00
  0.00000000E+00  0.00000000E+00  0.00000000E+00
  0.00000000E+00  0.00000000E+00  0.00000000E+00
  0.00000000E+00  0.00000000E+00  0.00000000E+00
  0.00000000E+00  0.00000000E+00  0.00000000E+00
  0.00000000E+00  0.00000000E+00  0.00000000E+00
  0.00000000E+00  0.00000000E+00  0.00000000E+00
  0.00000000E+00  0.00000000E+00  0.00000000E+00
  0.00000000E+00  0.00000000E+00  0.00000000E+00
  0.00000000E+00  0.00000000E+00  0.00000000E+00
  0.00000000E+00  0.00000000E+00  0.00000000E+00
  0.00000000E+00  0.00000000E+00  0.00000000E+00
  0.00000000E+00  0.00000000E+00  0.00000000E+00
  0.00000000E+00  0.00000000E+00  0.00000000E+00
  0.00000000E+00  0.00000000E+00  0.00000000E+00
  0.00000000E+00  0.00000000E+00  0.00000000E+00
  0.00000000E+00  0.00000000E+00  0.00000000E+00
  0.00000000E+00  0.00000000E+00  0.00000000E+00
  0.00000000E+00  0.00000000E+00  0.00000000E+00
  0.00000000E+00  0.00000000E+00  0.00000000E+00
  0.00000000E+00  0.00000000E+00  0.00000000E+00
  0.00000000E+00  0.00000000E+00  0.00000000E+00
  0.00000000E+00  0.00000000E+00  0.00000000E+00
  0.00000000E+00  0.00000000E+00  0.00000000E+00
  0.00000000E+00  0.00000000E+00  0.00000000E+00
  0.00000000E+00  0.00000000E+00  0.00000000E+00
  0.00000000E+00  0.00000000E+00  0.00000000E+00
  0.00000000E+00  0.00000000E+00  0.00000000E+00
  0.00000000E+00  0.00000000E+00  0.00000000E+00
  0.00000000E+00  0.00000000E+00  0.00000000E+00
  0.00000000E+00  0.00000000E+00  0.00000000E+00
  0.00000000E+00  0.00000000E+00  0.00000000E+00
  0.00000000E+00  0.00000000E+00  0.00000000E+00
  0.00000000E+00  0.00000000E+00  0.00000000E+00
  0.00000000E+00  0.00000000E+00  0.00000000E+00
  0.00000000E+00  0.00000000E+00  0.00000000E+00
  0.00000000E+00  0.00000000E+00  0.00000000E+00
  0.00000000E+00  0.00000000E+00  0.00000000E+00
  0.00000000E+00  0.00000000E+00  0.00000000E+00
  0.00000000E+00  0.00000000E+00  0.00000000E+00
  0.00000000E+00  0.00000000E+00  0.00000000E+00
  0.00000000E+00  0.00000000E+00  0.00000000E+00
  0.00000000E+00  0.00000000E+00  0.00000000E+00
  0.00000000E+00  0.00000000E+00  0.00000000E+00
  0.00000000E+00  0.00000000E+00  0.00000000E+00
  0.00000000E+00  0.00000000E+00  0.00000000E+00
  0.00000000E+00  0.00000000E+00  0.00000000E+00
  0.00000000E+00  0.00000000E+00  0.00000000E+00
  0.00000000E+00  0.00000000E+00  0.00000000E+00
  0.00000000E+00  0.00000000E+00  0.00000000E+00
  0.00000000E+00  0.00000000E+00  0.00000000E+00
  0.00000000E+00  0.00000000E+00  0.00000000E+00
  0.00000000E+00  0.00000000E+00  0.00000000E+00
  0.00000000E+00  0.00000000E+00  0.00000000E+00
  0.00000000E+00  0.00000000E+00  0.00000000E+00
  0.00000000E+00  0.00000000E+00  0.00000000E+00
  0.00000000E+00  0.00000000E+00  0.00000000E+00
  0.00000000E+00  0.00000000E+00  0.00000000E+00
  0.00000000E+00  0.00000000E+00  0.00000000E+00
  0.00000000E+00  0.00000000E+00  0.00000000E+00
  0.00000000E+00  0.00000000E+00  0.00000000E+00
  0.00000000E+00  0.00000000E+00  0.00000000E+00
  0.00000000E+00  0.00000000E+00  0.00000000E+00
  0.00000000E+00  0.00000000E+00  0.00000000E+00
  0.00000000E+00  0.00000000E+00  0.00000000E+00
  0.00000000E+00  0.00000000E+00  0.00000000E+00
  0.00000000E+00  0.00000000E+00  0.00000000E+00
  0.00000000E+00  0.00000000E+00  0.00000000E+00
  0.00000000E+00  0.00000000E+00  0.00000000E+00
  0.00000000E+00  0.00000000E+00  0.00000000E+00
  0.00000000E+00  0.00000000E+00  0.00000000E+00
  0.00000000E+00  0.00000000E+00  0.00000000E+00
  0.00000000E+00  0.00000000E+00  0.00000000E+00
  0.00000000E+00  0.00000000E+00  0.00000000E+00
  0.00000000E+00  0.00000000E+00  0.00000000E+00
  0.00000000E+00  0.00000000E+00  0.00000000E+00
  0.00000000E+00  0.00000000E+00  0.00000000E+00
  0.00000000E+00  0.00000000E+00  0.00000000E+00
  0.00000000E+00  0.00000000E+00  0.00000000E+00
  0.00000000E+00  0.00000000E+00  0.00000000E+00
  0.00000000E+00  0.00000000E+00  0.00000000E+00
  0.00000000E+00  0.00000000E+00  0.00000000E+00
  0.00000000E+00  0.00000000E+00  0.00000000E+00
  0.00000000E+00  0.00000000E+00  0.00000000E+00
  0.00000000E+00  0.00000000E+00  0.00000000E+00
  0.00000000E+00  0.00000000E+00  0.00000000E+00
  0.00000000E+00  0.00000000E+00  0.00000000E+00
  0.00000000E+00  0.00000000E+00  0.00000000E+00
  0.00000000E+00  0.00000000E+00  0.00000000E+00
  0.00000000E+00  0.00000000E+00  0.00000000E+00
  0.00000000E+00  0.00000000E+00  0.00000000E+00
  0.00000000E+00  0.00000000E+00  0.00000000E+00
  0.00000000E+00  0.00000000E+00  0.00000000E+00
  0.00000000E+00  0.00000000E+00  0.00000000E+00
  0.00000000E+00  0.00000000E+00  0.00000000E+00
  0.00000000E+00  0.00000000E+00  0.00000000E+00
  0.00000000E+00  0.00000000E+00  0.00000000E+00
  0.00000000E+00  0.00000000E+00  0.00000000E+00
  0.00000000E+00  0.00000000E+00  0.00000000E+00
  0.00000000E+00  0.00000000E+00  0.00000000E+00
  0.00000000E+00  0.00000000E+00  0.00000000E+00
  0.00000000E+00  0.00000000E+00  0.00000000E+00
  0.00000000E+00  0.00000000E+00  0.00000000E+00
  0.00000000E+00  0.00000000E+00  0.00000000E+00
  0.00000000E+00  0.00000000E+00  0.00000000E+00
  0.00000000E+00  0.00000000E+00  0.00000000E+00
  0.00000000E+00  0.00000000E+00  0.00000000E+00
  0.00000000E+00  0.00000000E+00  0.00000000E+00
  0.00000000E+00  0.00000000E+00  0.00000000E+00
  0.00000000E+00  0.00000000E+00  0.00000000E+00
  0.00000000E+00  0.00000000E+00  0.00000000E+00
  0.00000000E+00  0.00000000E+00  0.00000000E+00
  0.00000000E+00  0.00000000E+00  0.00000000E+00
  0.00000000E+00  0.00000000E+00  0.00000000E+00
  0.00000000E+00  0.00000000E+00  0.00000000E+00
  0.00000000E+00  0.00000000E+00  0.00000000E+00
  0.00000000E+00  0.00000000E+00  0.00000000E+00
  0.00000000E+00  0.00000000E+00  0.00000000E+00
  0.00000000E+00  0.00000000E+00  0.00000000E+00
  0.00000000E+00  0.00000000E+00  0.00000000E+00
  0.00000000E+00  0.00000000E+00  0.00000000E+00
  0.00000000E+00  0.00000000E+00  0.00000000E+00
  0.00000000E+00  0.00000000E+00  0.00000000E+00
  0.00000000E+00  0.00000000E+00  0.00000000E+00
  0.00000000E+00  0.00000000E+00  0.00000000E+00
  0.00000000E+00  0.00000000E+00  0.00000000E+00
  0.00000000E+00  0.00000000E+00  0.00000000E+00
  0.00000000E+00  0.00000000E+00  0.00000000E+00
  0.00000000E+00  0.00000000E+00  0.00000000E+00
  0.00000000E+00  0.00000000E+00  0.00000000E+00
  0.00000000E+00  0.00000000E+00  0.00000000E+00
  0.00000000E+00  0.00000000E+00  0.00000000E+00
  0.00000000E+00  0.00000000E+00  0.00000000E+00
  0.00000000E+00  0.00000000E+00  0.00000000E+00
  0.00000000E+00  0.00000000E+00  0.00000000E+00
  0.00000000E+00  0.00000000E+00  0.00000000E+00
  0.00000000E+00  0.00000000E+00  0.00000000E+00
  0.00000000E+00  0.00000000E+00  0.00000000E+00
  0.00000000E+00  0.00000000E+00  0.00000000E+00
  0.00000000E+00  0.00000000E+00  0.00000000E+00
  0.00000000E+00  0.00000000E+00  0.00000000E+00
  0.00000000E+00  0.00000000E+00  0.00000000E+00
  0.00000000E+00  0.00000000E+00  0.00000000E+00
  0.00000000E+00  0.00000000E+00  0.00000000E+00
  0.00000000E+00  0.00000000E+00  0.00000000E+00
  0.00000000E+00  0.00000000E+00  0.00000000E+00
  0.00000000E+00  0.00000000E+00  0.00000000E+00
  0.00000000E+00  0.00000000E+00  0.00000000E+00
  0.00000000E+00  0.00000000E+00  0.00000000E+00
  0.00000000E+00  0.00000000E+00  0.00000000E+00
  0.00000000E+00  0.00000000E+00  0.00000000E+00
  0.00000000E+00  0.00000000E+00  0.00000000E+00
  0.00000000E+00  0.00000000E+00  0.00000000E+00
  0.00000000E+00  0.00000000E+00  0.00000000E+00
  0.00000000E+00  0.00000000E+00  0.00000000E+00
  0.00000000E+00  0.00000000E+00  0.00000000E+00
  0.00000000E+00  0.00000000E+00  0.00000000E+00
  0.00000000E+00  0.00000000E+00  0.00000000E+00
  0.00000000E+00  0.00000000E+00  0.00000000E+00
  0.00000000E+00  0.00000000E+00  0.00000000E+00
  0.00000000E+00  0.00000000E+00  0.00000000E+00
  0.00000000E+00  0.00000000E+00  0.00000000E+00
  0.00000000E+00  0.00000000E+00  0.00000000E+00
