New structure                           
   1.00000000000000     
    14.5000000000000000    0.0000000000000000    0.0000000000000000
     0.0000000000000000   14.5000000000000000    0.0000000000000000
     0.0000000000000000    0.0000000000000000   14.5000000000000000
   N 
    10
Direct
  0.6824839006703481  0.6729356076118558  0.3010224257641402
  0.7543152684333162  0.6377930064831582  0.3082994976772545
  0.0274145273869665  0.9694370440324888  0.5746355016242919
  0.0287669527240383  0.9281850888857002  0.6406029170985670
  0.3908790852318356  0.0469851675770101  0.1301813708364092
  0.4522634792854844  0.0190681527866375  0.1713164802707003
  0.1310960517165094  0.8171757772176781  0.1116273740262099
  0.0780934205156780  0.8738402885160845  0.1136808021030186
  0.2575299827923861  0.2199884475342578  0.3759957214865310
  0.2385366415882818  0.2490741779758183  0.3071206677335739
 
  0.59786909E-03 -0.33494363E-02 -0.10135109E-01
 -0.95180640E-02 -0.73691610E-02 -0.11342134E-01
 -0.27266233E-03 -0.54348453E-02  0.85013810E-02
 -0.15654132E-02  0.43479765E-02  0.51359875E-02
  0.23707001E-02 -0.80902622E-02  0.12602587E-02
  0.61035648E-02  0.39417614E-02  0.32168166E-02
 -0.51006428E-02  0.96569462E-02  0.10645124E-02
  0.24160457E-02  0.50284908E-02  0.27294220E-02
  0.30796774E-03  0.20926337E-02 -0.54191225E-02
  0.46606350E-02 -0.82410378E-03  0.49879875E-02
 
           1
   1.00000000000000     
  0.10000000E+01  0.00000000E+00  0.00000000E+00  0.00000000E+00
  0.68252513E+00  0.67270461E+00  0.30032345E+00
  0.75365885E+00  0.63728479E+00  0.30751728E+00
  0.27395723E-01  0.96906223E+00  0.57522180E+00
  0.28658993E-01  0.92848495E+00  0.64095712E+00
  0.39104258E+00  0.46427218E-01  0.13026829E+00
  0.45268441E+00  0.19339998E-01  0.17153833E+00
  0.13074428E+00  0.81784177E+00  0.11170079E+00
  0.78260044E-01  0.87418708E+00  0.11386904E+00
  0.25755122E+00  0.22013277E+00  0.37562199E+00
  0.23885806E+00  0.24901734E+00  0.30746467E+00
 -0.66954008E-04 -0.17865444E-03 -0.70956927E-03
 -0.54821558E-03 -0.56106471E-03 -0.77168460E-03
 -0.20008632E-04 -0.36418165E-03  0.56880378E-03
 -0.10820102E-03  0.28928508E-03  0.37097836E-03
  0.10866095E-03 -0.53282806E-03  0.50437183E-04
  0.47565662E-03  0.24711103E-03  0.25823810E-03
 -0.34385278E-03  0.65865978E-03  0.73637537E-04
  0.15914788E-03  0.35423630E-03  0.18915055E-03
  0.18864362E-04  0.14978690E-03 -0.38468185E-03
  0.32490221E-03 -0.62350232E-04  0.35469022E-03
  0.00000000E+00  0.00000000E+00  0.00000000E+00
  0.00000000E+00  0.00000000E+00  0.00000000E+00
  0.00000000E+00  0.00000000E+00  0.00000000E+00
  0.00000000E+00  0.00000000E+00  0.00000000E+00
  0.00000000E+00  0.00000000E+00  0.00000000E+00
  0.00000000E+00  0.00000000E+00  0.00000000E+00
  0.00000000E+00  0.00000000E+00  0.00000000E+00
  0.00000000E+00  0.00000000E+00  0.00000000E+00
  0.00000000E+00  0.00000000E+00  0.00000000E+00
  0.00000000E+00  0.00000000E+00  0.00000000E+00
