SYSTEM = NiAl

ISTART = 0
EDIFF  = 5E-6
#EDIFF  = 1E-7
NELMIN = 6
#ISIF   = 1
NSW = 1000
IBRION=0
SMASS=-1
NBLOCK=20
TEBEG=600
TEEND=600
POTIM=1

#PREC=Accurate
#ADDGRID=.TRUE.
LWAVE=.FALSE.
LCHARG=.FALSE.
LREAL= Auto

NCORE=1
LPLANE=.TRUE.

   ENCUT  =   300.00 eV

 DOS related values
   ISMEAR = 0
   SIGMA = 0.05

