New structure
1.0
    14.5   0.0  0.0
    0.0  14.5   0.0
    0.0  0.0  14.5 
   N
  10
Cartesian
  0.000000000000000E+000  0.000000000000000E+000  0.000000000000000E+000
  1.1 0 0
  0.5 -0.5 2
  0.5  0.5 2
  2 1.9 0
  2 2.9 0
  2 5 0
  2 5 1
  2 3 5
  3 3 5
