New structure                           
   1.00000000000000     
     0.0000000000000000  -15.1462217587961998    0.0000000000000000
     0.0000000000000000   -7.5731108793980804  -13.1170128144700993
    29.0000000000000000    0.0000000000000000    0.0000000000000000
   Ni   N 
   252     1
Direct
  0.4444293966349978  0.4444745400633329  0.1045171801394454
  0.4444011473546423  0.7777517354946135  0.1044209999222611
  0.4443382459443708  0.1111940615130200  0.1043880250864510
  0.7778118869978086  0.4443963805407540  0.1043524489278774
  0.7778222577401772  0.7776888178529815  0.1043574885035305
  0.7778010258759449  0.1111940615130200  0.1043880250864510
  0.1111250657947732  0.4443963805407540  0.1043524489278774
  0.1111804504840797  0.7777517354946135  0.1044209999222611
  0.1110771374440242  0.1111790584452943  0.1043817822196975
  0.5555537393373442  0.5555014188847076  0.1734371865886483
  0.5554747138108005  0.8888958978322657  0.1732820461847751
  0.5555064397687967  0.2223204537957426  0.1733546469244647
  0.8889386142048015  0.5554561049237255  0.1733260710764331
  0.8889627216902626  0.8888958978322657  0.1732820461847751
  0.8889063899777401  0.2222465305967028  0.1733375869273059
  0.2222781751112839  0.5555014188847076  0.1734371865886483
  0.2222263015752306  0.8888807301828672  0.1733506821995096
  0.2221804127588860  0.2222465305967028  0.1733375869273059
  0.6666960292005994  0.6666521088511715  0.2424466348459834
  0.6666824456774600 -0.0000315580215925  0.2423546643457667
  0.6665968382307388  0.3334535552067259  0.2425999799228368
 -0.0000148047184426  0.6666521088511715  0.2424466348459834
  0.0000520967100071 -0.0000366010181350  0.2425148430154323
 -0.0000202933284688  0.3333739199902733  0.2425312911431357
  0.3333593115701073  0.6666147101931210  0.2427648238447420
  0.3333178376414636 -0.0000366010181350  0.2425148430154323
  0.3332829398958709  0.3334535552067259  0.2425999799228368
  0.7777845250369555  0.7777642832594243  0.3113074501363556
  0.7777723283939374  0.1111612880899442  0.3114538363452282
  0.7777257656293127  0.4444316744040526  0.3115613821528826
  0.1111223059590993  0.7778028721799718  0.3114736821965987
  0.1111434757716322  0.1110463817900784  0.3115106457500906
  0.1111758932999703  0.4444316744040526  0.3115613821528826
  0.4444081551942650  0.7778028721799718  0.3114736821965987
  0.4443997168494543  0.1111612880899442  0.3114538363452282
  0.4445235858552711  0.4442861616227867  0.3118477954502004
  0.8887503915311348  0.8888802323850407  0.3805018855336689
  0.8887986506433211  0.2222586573346490  0.3807240186735948
  0.8888219709823513  0.5556893913686262  0.3806189907127974
  0.2222725639044741  0.8887882055243803  0.3808885227318072
  0.2222760253553587  0.2222586573346490  0.3807240186735948
  0.2221778407279469  0.5557443082901814  0.3811125475845521
  0.5557027094171531  0.8888802323850407  0.3805018855336689
  0.5556703017351868  0.2219927298629615  0.3805399960419279
  0.5554111843152073  0.5557443082901814  0.3811125475845521
 -0.0003781604101458  0.0002652610807757  0.4498293717726314
  0.0000196307438594  0.3332940718456167  0.4498966473293045
 -0.0007544275856325  0.6668000426212861  0.4497469582337312
  0.3334462326627057  0.0002652610807757  0.4498293717726314
  0.3331955959681991  0.3328007129979136  0.4502087905524724
  0.3322806606153222  0.6687720121026912  0.4512628199043456
  0.6667678334754863 -0.0002023336176447  0.4497038060317280
  0.6673370243672232  0.3328007129979136  0.4502087905524724
  0.6672877182976750  0.6668000426212861  0.4497469582337312
  0.1108537777709324  0.1116257777914780  0.5185637808641217
  0.1096295749604017  0.4440733576119002  0.5185965342518223
  0.1090720029520470  0.7803040530587939  0.5186041095491910
  0.4445269385204499  0.1102340664405660  0.5183913982860719
  0.4491032318207410  0.4351268696918467  0.5228447187308122
  0.4439572773224951  0.7803040530587939  0.5186041095491910
  0.7785723283723195  0.1102340664405660  0.5183913982860719
  0.7796304007610342  0.4440733576119002  0.5185965342518223
  0.7777309256000919  0.7778714821331514  0.5182966373801877
  0.2777297138740897  0.2777917324614375  0.1043524489278774
  0.2778078733966686  0.6110960633016692  0.1045171801394454
  0.2777297138740897  0.9444785536644729  0.1043524489278774
  0.6110850688279492  0.2778471171507440  0.1044209999222611
  0.6110850688279492  0.6110678140213139  0.1044209999222611
  0.6110221511863172  0.9444889244068415  0.1043574885035305
  0.9445123917786230  0.2777438041106885  0.1043817822196975
  0.9445273948463487  0.6110049126110420  0.1043880250864510
  0.9445273948463487  0.9444676925426092  0.1043880250864510
  0.3888347522180359  0.3889448417779483  0.1734371865886483
  0.3888347522180359  0.7222204060040085  0.1734371865886483
  0.3887894382570539  0.0556052808714730  0.1733260710764331
  0.7222140635162029  0.3888929682418950  0.1733506821995096
  0.7222292311656014  0.7221413804774648  0.1732820461847751
  0.7222292311656014  0.0556293883569337  0.1732820461847751
  0.0555798639300385  0.3888470794255502  0.1733375869273059
  0.0556537871290783  0.7221731064354610  0.1733546469244647
  0.0555798639300385  0.0555730566444112  0.1733375869273059
  0.4999480435264569  0.5000259782367713  0.2427648238447420
  0.4999854421845073  0.8333626958672709  0.2424466348459834
  0.4999854421845073  0.1666518619482217  0.2424466348459834
  0.8332967323152008  0.4999845043081281  0.2425148430154323
  0.8333017753117429  0.8333491123441314  0.2423546643457667
  0.8332967323152008  0.1667187633766714  0.2425148430154323
  0.1667868885400546  0.4999496065625353  0.2425999799228368
  0.1667868885400546  0.8332635048974102  0.2425999799228368
  0.1667072533236019  0.1666463733381955  0.2425312911431357
  0.6111362055133075  0.6110748218609361  0.3114736821965987
  0.6110976165927600  0.9444511917036198  0.3113074501363556
  0.6111362055133075  0.2777889726257636  0.3114736821965987
  0.9444946214232731  0.6110663835161255  0.3114538363452282
  0.9444946214232731  0.9444389950606017  0.3114538363452282
  0.9443797151234073  0.2778101424382963  0.3115106457500906
  0.2776194949561224  0.6111902525219426  0.3118477954502004
  0.2777650077373883  0.9443924322959770  0.3115613821528826
  0.2777650077373883  0.2778425599666345  0.3115613821528826
  0.7222135657183764  0.7223693760838173  0.3805018855336689
  0.7222135657183764  0.0554170581978063  0.3805018855336689
  0.7221215388577160  0.3889392305711384  0.3808885227318072
  0.0553260631962972  0.7223369684018511  0.3805399960419279
  0.0555919906679846  0.0554653173099923  0.3807240186735948
  0.0555919906679846  0.3889426920220231  0.3807240186735948
  0.3890776416235101  0.7220778509818716  0.3811125475845521
  0.3890227247019548  0.0554886376490226  0.3806189907127974
  0.3890776416235101  0.3888445073946113  0.3811125475845521
  0.8331309997156907  0.8334345001421577  0.4497038060317280
  0.8335985944141111  0.1662885062565184  0.4498293717726314
  0.8335985944141111  0.5001128993293700  0.4498293717726314
  0.1661340463312422  0.8340036910338946  0.4502087905524724
  0.1666274051789454  0.1666862974105238  0.4498966473293045
  0.1661340463312422  0.4998622626348634  0.4502087905524724
  0.5001333759546217  0.8339543849643464  0.4497469582337312
  0.5001333759546217  0.1659122390810318  0.4497469582337312
  0.5021053454360269  0.4989473272819865  0.4512628199043456
  0.9435673997738943  0.9452389950389838  0.5183913982860719
  0.9449591111248066  0.2775204444375967  0.5185637808641217
  0.9435673997738943  0.6111936051871211  0.5183913982860719
  0.2774066909452359  0.9462970674276985  0.5185965342518223
  0.2774066909452359  0.2762962416270660  0.5185965342518223
  0.2684602030251824  0.6157698984874126  0.5228447187308122
  0.6112048154664871  0.9443975922667562  0.5182966373801877
  0.6136373863921296  0.2757386696187110  0.5186041095491910
  0.6136373863921296  0.6106239439891664  0.5186041095491910
  0.2777909408485592  0.4444576075152235  0.1044233056618833
  0.2777909408485592  0.7777514516362174  0.1044233056618833
  0.2776803445382611  0.1111598277308729  0.1043902746730243
  0.6110847849695531  0.4444576075152235  0.1044233056618833
  0.6110558004256217  0.7777224670922860  0.1043747012182263
  0.6110558004256217  0.1112217324820998  0.1043747012182263
  0.9444931610642016  0.4443470112049254  0.1043902746730243
  0.9445550658154287  0.7777224670922860  0.1043747012182263
  0.9444931610642016  0.1111598277308729  0.1043902746730243
  0.3888888888888857  0.5555555555555571  0.1735104139911661
  0.3887421794584833  0.8888836312558592  0.1733516844282157
  0.3887421794584833  0.2223741892856506  0.1733516844282157
  0.7222169645891949  0.5554088461251548  0.1733516844282157
  0.7222222222222214  0.8888888888888857  0.1732147279796525
  0.7222169645891949  0.2223741892856506  0.1733516844282157
  0.0557075226189863  0.5554088461251548  0.1733516844282157
  0.0557075226189863  0.8888836312558592  0.1733516844282157
  0.0555555555555571  0.2222222222222214  0.1733911618284790
  0.4999480454212054  0.6666147120878697  0.2425669209668891
  0.4999482265279749  0.0000258867360125  0.2424513155540456
  0.4999480454212054  0.3334372424909253  0.2425669209668891
  0.8333592200693484  0.6666148931946392  0.2424513155540456
  0.8333592200693484  0.0000258867360125  0.2424513155540456
  0.8332985084821078  0.3333507457589496  0.2425270399890661
  0.1667705758242539  0.6666147120878697  0.2425669209668891
  0.1666840790922781 -0.0000348248512278  0.2425270399890661
  0.1666840790922781  0.3333507457589496  0.2425270399890661
  0.6111105442652637  0.7777772109319280  0.3113290447402616
  0.6111105442652637  0.1111122448028152  0.3113290447402616
  0.6108936721453562  0.4445531639273219  0.3117986389201833
  0.9444455781361440  0.7777772109319280  0.3113290447402616
  0.9444433974010313  0.1111100640677029  0.3115029470654273
  0.9444433974010313  0.4444465385312655  0.3115029470654273
  0.2778864972606576  0.7775603388120205  0.3117986389201833
  0.2777798718646012  0.1111100640677029  0.3115029470654273
  0.2778864972606576  0.4445531639273219  0.3117986389201833
  0.7222222222222214  0.8888888888888857  0.3804660947084111
  0.7220350049250728  0.2223313548688799  0.3807261279019185
  0.7220350049250728  0.5556336402060471  0.3807261279019185
  0.0556646882022157  0.8887016715917371  0.3807261279019185
  0.0555555555555571  0.2222222222222214  0.3807078715267339
  0.0556646882022157  0.5556336402060471  0.3807261279019185
  0.3889669735393759  0.8887016715917371  0.3807261279019185
  0.3889669735393759  0.2223313548688799  0.3807261279019185
  0.3888888888888857  0.5555555555555571  0.3805177816592875
  0.8331746106487709 -0.0001587226845648  0.4497017066286019
  0.8336467134182487  0.3331766432908792  0.4500079448412398
  0.8331746106487709  0.6669841120357940  0.4497017066286019
  0.1665099766242078  0.0003133800849130  0.4500079448412398
  0.1665099766242078  0.3331766432908792  0.4500079448412398
  0.1633274183228792  0.6683362908385569  0.4501281803741602
  0.5003174453691297 -0.0001587226845648  0.4497017066286019
  0.5016696241718926  0.3299940849895505  0.4501281803741602
  0.5016696241718926  0.6683362908385569  0.4501281803741602
  0.9446131930209452  0.1112798596876162  0.5184197058157709
  0.9446131930209452  0.4441069472914390  0.5184197058157709
  0.9440377714358328  0.7779811142820835  0.5182190201208888
  0.2774402806247747  0.1112798596876162  0.5184197058157709
  0.2744225920782426  0.4410892587449069  0.5198800374511238
  0.2744225920782426  0.7844881491768505  0.5198800374511238
  0.6113144476154192  0.1107044381025043  0.5182190201208888
  0.6178214825101862  0.4410892587449069  0.5198800374511238
  0.6113144476154192  0.7779811142820835  0.5182190201208888
  0.4444011473546423  0.2778471171507440  0.1044209999222611
  0.4444293966349978  0.6110960633016692  0.1045171801394454
  0.4443382459443708  0.9444676925426092  0.1043880250864510
  0.7778118869978086  0.2777917324614375  0.1043524489278774
  0.7778010258759449  0.6110049126110420  0.1043880250864510
  0.7778222577401772  0.9444889244068415  0.1043574885035305
  0.1110771374440242  0.2777438041106885  0.1043817822196975
  0.1111804504840797  0.6110678140213139  0.1044209999222611
  0.1111250657947732  0.9444785536644729  0.1043524489278774
  0.5555537393373442  0.3889448417779483  0.1734371865886483
  0.5555064397687967  0.7221731064354610  0.1733546469244647
  0.5554747138108005  0.0556293883569337  0.1732820461847751
  0.8889063899777401  0.3888470794255502  0.1733375869273059
  0.8889627216902626  0.7221413804774648  0.1732820461847751
  0.8889386142048015  0.0556052808714730  0.1733260710764331
  0.2222263015752306  0.3888929682418950  0.1733506821995096
  0.2222781751112839  0.7222204060040085  0.1734371865886483
  0.2221804127588860  0.0555730566444112  0.1733375869273059
  0.6665968382307388  0.4999496065625353  0.2425999799228368
  0.6666824456774600  0.8333491123441314  0.2423546643457667
  0.6666960292005994  0.1666518619482217  0.2424466348459834
  0.0000520967100071  0.4999845043081281  0.2425148430154323
 -0.0000148047184426  0.8333626958672709  0.2424466348459834
 -0.0000202933284688  0.1666463733381955  0.2425312911431357
  0.3333593115701073  0.5000259782367713  0.2427648238447420
  0.3332829398958709  0.8332635048974102  0.2425999799228368
  0.3333178376414636  0.1667187633766714  0.2425148430154323
  0.7777723283939374  0.6110663835161255  0.3114538363452282
  0.7777845250369555  0.9444511917036198  0.3113074501363556
  0.7777257656293127  0.2778425599666345  0.3115613821528826
  0.1111223059590993  0.6110748218609361  0.3114736821965987
  0.1111758932999703  0.9443924322959770  0.3115613821528826
  0.1111434757716322  0.2778101424382963  0.3115106457500906
  0.4445235858552711  0.6111902525219426  0.3118477954502004
  0.4443997168494543  0.9444389950606017  0.3114538363452282
  0.4444081551942650  0.2777889726257636  0.3114736821965987
  0.8887503915311348  0.7223693760838173  0.3805018855336689
  0.8888219709823513  0.0554886376490226  0.3806189907127974
  0.8887986506433211  0.3889426920220231  0.3807240186735948
  0.2221778407279469  0.7220778509818716  0.3811125475845521
  0.2222760253553587  0.0554653173099923  0.3807240186735948
  0.2222725639044741  0.3889392305711384  0.3808885227318072
  0.5556703017351868  0.7223369684018511  0.3805399960419279
  0.5557027094171531  0.0554170581978063  0.3805018855336689
  0.5554111843152073  0.3888445073946113  0.3811125475845521
 -0.0007544275856325  0.8339543849643464  0.4497469582337312
  0.0000196307438594  0.1666862974105238  0.4498966473293045
 -0.0003781604101458  0.5001128993293700  0.4498293717726314
  0.3331955959681991  0.8340036910338946  0.4502087905524724
  0.3334462326627057  0.1662885062565184  0.4498293717726314
  0.3322806606153222  0.4989473272819865  0.4512628199043456
  0.6667678334754863  0.8334345001421577  0.4497038060317280
  0.6672877182976750  0.1659122390810318  0.4497469582337312
  0.6673370243672232  0.4998622626348634  0.4502087905524724
  0.1096295749604017  0.9462970674276985  0.5185965342518223
  0.1108537777709324  0.2775204444375967  0.5185637808641217
  0.1090720029520470  0.6106239439891664  0.5186041095491910
  0.4445269385204499  0.9452389950389838  0.5183913982860719
  0.4439572773224951  0.2757386696187110  0.5186041095491910
  0.4491032318207410  0.6157698984874126  0.5228447187308122
  0.7777309256000919  0.9443975922667562  0.5182966373801877
  0.7796304007610342  0.2762962416270660  0.5185965342518223
  0.7785723283723195  0.6111936051871211  0.5183913982860719
  0.3888888888888857  0.5555555555555571  0.4921209453596604
 
  0.00000000E+00  0.00000000E+00  0.00000000E+00
  0.00000000E+00  0.00000000E+00  0.00000000E+00
  0.00000000E+00  0.00000000E+00  0.00000000E+00
  0.00000000E+00  0.00000000E+00  0.00000000E+00
  0.00000000E+00  0.00000000E+00  0.00000000E+00
  0.00000000E+00  0.00000000E+00  0.00000000E+00
  0.00000000E+00  0.00000000E+00  0.00000000E+00
  0.00000000E+00  0.00000000E+00  0.00000000E+00
  0.00000000E+00  0.00000000E+00  0.00000000E+00
  0.00000000E+00  0.00000000E+00  0.00000000E+00
  0.00000000E+00  0.00000000E+00  0.00000000E+00
  0.00000000E+00  0.00000000E+00  0.00000000E+00
  0.00000000E+00  0.00000000E+00  0.00000000E+00
  0.00000000E+00  0.00000000E+00  0.00000000E+00
  0.00000000E+00  0.00000000E+00  0.00000000E+00
  0.00000000E+00  0.00000000E+00  0.00000000E+00
  0.00000000E+00  0.00000000E+00  0.00000000E+00
  0.00000000E+00  0.00000000E+00  0.00000000E+00
  0.00000000E+00  0.00000000E+00  0.00000000E+00
  0.00000000E+00  0.00000000E+00  0.00000000E+00
  0.00000000E+00  0.00000000E+00  0.00000000E+00
  0.00000000E+00  0.00000000E+00  0.00000000E+00
  0.00000000E+00  0.00000000E+00  0.00000000E+00
  0.00000000E+00  0.00000000E+00  0.00000000E+00
  0.00000000E+00  0.00000000E+00  0.00000000E+00
  0.00000000E+00  0.00000000E+00  0.00000000E+00
  0.00000000E+00  0.00000000E+00  0.00000000E+00
  0.00000000E+00  0.00000000E+00  0.00000000E+00
  0.00000000E+00  0.00000000E+00  0.00000000E+00
  0.00000000E+00  0.00000000E+00  0.00000000E+00
  0.00000000E+00  0.00000000E+00  0.00000000E+00
  0.00000000E+00  0.00000000E+00  0.00000000E+00
  0.00000000E+00  0.00000000E+00  0.00000000E+00
  0.00000000E+00  0.00000000E+00  0.00000000E+00
  0.00000000E+00  0.00000000E+00  0.00000000E+00
  0.00000000E+00  0.00000000E+00  0.00000000E+00
  0.00000000E+00  0.00000000E+00  0.00000000E+00
  0.00000000E+00  0.00000000E+00  0.00000000E+00
  0.00000000E+00  0.00000000E+00  0.00000000E+00
  0.00000000E+00  0.00000000E+00  0.00000000E+00
  0.00000000E+00  0.00000000E+00  0.00000000E+00
  0.00000000E+00  0.00000000E+00  0.00000000E+00
  0.00000000E+00  0.00000000E+00  0.00000000E+00
  0.00000000E+00  0.00000000E+00  0.00000000E+00
  0.00000000E+00  0.00000000E+00  0.00000000E+00
  0.00000000E+00  0.00000000E+00  0.00000000E+00
  0.00000000E+00  0.00000000E+00  0.00000000E+00
  0.00000000E+00  0.00000000E+00  0.00000000E+00
  0.00000000E+00  0.00000000E+00  0.00000000E+00
  0.00000000E+00  0.00000000E+00  0.00000000E+00
  0.00000000E+00  0.00000000E+00  0.00000000E+00
  0.00000000E+00  0.00000000E+00  0.00000000E+00
  0.00000000E+00  0.00000000E+00  0.00000000E+00
  0.00000000E+00  0.00000000E+00  0.00000000E+00
  0.00000000E+00  0.00000000E+00  0.00000000E+00
  0.00000000E+00  0.00000000E+00  0.00000000E+00
  0.00000000E+00  0.00000000E+00  0.00000000E+00
  0.00000000E+00  0.00000000E+00  0.00000000E+00
  0.00000000E+00  0.00000000E+00  0.00000000E+00
  0.00000000E+00  0.00000000E+00  0.00000000E+00
  0.00000000E+00  0.00000000E+00  0.00000000E+00
  0.00000000E+00  0.00000000E+00  0.00000000E+00
  0.00000000E+00  0.00000000E+00  0.00000000E+00
  0.00000000E+00  0.00000000E+00  0.00000000E+00
  0.00000000E+00  0.00000000E+00  0.00000000E+00
  0.00000000E+00  0.00000000E+00  0.00000000E+00
  0.00000000E+00  0.00000000E+00  0.00000000E+00
  0.00000000E+00  0.00000000E+00  0.00000000E+00
  0.00000000E+00  0.00000000E+00  0.00000000E+00
  0.00000000E+00  0.00000000E+00  0.00000000E+00
  0.00000000E+00  0.00000000E+00  0.00000000E+00
  0.00000000E+00  0.00000000E+00  0.00000000E+00
  0.00000000E+00  0.00000000E+00  0.00000000E+00
  0.00000000E+00  0.00000000E+00  0.00000000E+00
  0.00000000E+00  0.00000000E+00  0.00000000E+00
  0.00000000E+00  0.00000000E+00  0.00000000E+00
  0.00000000E+00  0.00000000E+00  0.00000000E+00
  0.00000000E+00  0.00000000E+00  0.00000000E+00
  0.00000000E+00  0.00000000E+00  0.00000000E+00
  0.00000000E+00  0.00000000E+00  0.00000000E+00
  0.00000000E+00  0.00000000E+00  0.00000000E+00
  0.00000000E+00  0.00000000E+00  0.00000000E+00
  0.00000000E+00  0.00000000E+00  0.00000000E+00
  0.00000000E+00  0.00000000E+00  0.00000000E+00
  0.00000000E+00  0.00000000E+00  0.00000000E+00
  0.00000000E+00  0.00000000E+00  0.00000000E+00
  0.00000000E+00  0.00000000E+00  0.00000000E+00
  0.00000000E+00  0.00000000E+00  0.00000000E+00
  0.00000000E+00  0.00000000E+00  0.00000000E+00
  0.00000000E+00  0.00000000E+00  0.00000000E+00
  0.00000000E+00  0.00000000E+00  0.00000000E+00
  0.00000000E+00  0.00000000E+00  0.00000000E+00
  0.00000000E+00  0.00000000E+00  0.00000000E+00
  0.00000000E+00  0.00000000E+00  0.00000000E+00
  0.00000000E+00  0.00000000E+00  0.00000000E+00
  0.00000000E+00  0.00000000E+00  0.00000000E+00
  0.00000000E+00  0.00000000E+00  0.00000000E+00
  0.00000000E+00  0.00000000E+00  0.00000000E+00
  0.00000000E+00  0.00000000E+00  0.00000000E+00
  0.00000000E+00  0.00000000E+00  0.00000000E+00
  0.00000000E+00  0.00000000E+00  0.00000000E+00
  0.00000000E+00  0.00000000E+00  0.00000000E+00
  0.00000000E+00  0.00000000E+00  0.00000000E+00
  0.00000000E+00  0.00000000E+00  0.00000000E+00
  0.00000000E+00  0.00000000E+00  0.00000000E+00
  0.00000000E+00  0.00000000E+00  0.00000000E+00
  0.00000000E+00  0.00000000E+00  0.00000000E+00
  0.00000000E+00  0.00000000E+00  0.00000000E+00
  0.00000000E+00  0.00000000E+00  0.00000000E+00
  0.00000000E+00  0.00000000E+00  0.00000000E+00
  0.00000000E+00  0.00000000E+00  0.00000000E+00
  0.00000000E+00  0.00000000E+00  0.00000000E+00
  0.00000000E+00  0.00000000E+00  0.00000000E+00
  0.00000000E+00  0.00000000E+00  0.00000000E+00
  0.00000000E+00  0.00000000E+00  0.00000000E+00
  0.00000000E+00  0.00000000E+00  0.00000000E+00
  0.00000000E+00  0.00000000E+00  0.00000000E+00
  0.00000000E+00  0.00000000E+00  0.00000000E+00
  0.00000000E+00  0.00000000E+00  0.00000000E+00
  0.00000000E+00  0.00000000E+00  0.00000000E+00
  0.00000000E+00  0.00000000E+00  0.00000000E+00
  0.00000000E+00  0.00000000E+00  0.00000000E+00
  0.00000000E+00  0.00000000E+00  0.00000000E+00
  0.00000000E+00  0.00000000E+00  0.00000000E+00
  0.00000000E+00  0.00000000E+00  0.00000000E+00
  0.00000000E+00  0.00000000E+00  0.00000000E+00
  0.00000000E+00  0.00000000E+00  0.00000000E+00
  0.00000000E+00  0.00000000E+00  0.00000000E+00
  0.00000000E+00  0.00000000E+00  0.00000000E+00
  0.00000000E+00  0.00000000E+00  0.00000000E+00
  0.00000000E+00  0.00000000E+00  0.00000000E+00
  0.00000000E+00  0.00000000E+00  0.00000000E+00
  0.00000000E+00  0.00000000E+00  0.00000000E+00
  0.00000000E+00  0.00000000E+00  0.00000000E+00
  0.00000000E+00  0.00000000E+00  0.00000000E+00
  0.00000000E+00  0.00000000E+00  0.00000000E+00
  0.00000000E+00  0.00000000E+00  0.00000000E+00
  0.00000000E+00  0.00000000E+00  0.00000000E+00
  0.00000000E+00  0.00000000E+00  0.00000000E+00
  0.00000000E+00  0.00000000E+00  0.00000000E+00
  0.00000000E+00  0.00000000E+00  0.00000000E+00
  0.00000000E+00  0.00000000E+00  0.00000000E+00
  0.00000000E+00  0.00000000E+00  0.00000000E+00
  0.00000000E+00  0.00000000E+00  0.00000000E+00
  0.00000000E+00  0.00000000E+00  0.00000000E+00
  0.00000000E+00  0.00000000E+00  0.00000000E+00
  0.00000000E+00  0.00000000E+00  0.00000000E+00
  0.00000000E+00  0.00000000E+00  0.00000000E+00
  0.00000000E+00  0.00000000E+00  0.00000000E+00
  0.00000000E+00  0.00000000E+00  0.00000000E+00
  0.00000000E+00  0.00000000E+00  0.00000000E+00
  0.00000000E+00  0.00000000E+00  0.00000000E+00
  0.00000000E+00  0.00000000E+00  0.00000000E+00
  0.00000000E+00  0.00000000E+00  0.00000000E+00
  0.00000000E+00  0.00000000E+00  0.00000000E+00
  0.00000000E+00  0.00000000E+00  0.00000000E+00
  0.00000000E+00  0.00000000E+00  0.00000000E+00
  0.00000000E+00  0.00000000E+00  0.00000000E+00
  0.00000000E+00  0.00000000E+00  0.00000000E+00
  0.00000000E+00  0.00000000E+00  0.00000000E+00
  0.00000000E+00  0.00000000E+00  0.00000000E+00
  0.00000000E+00  0.00000000E+00  0.00000000E+00
  0.00000000E+00  0.00000000E+00  0.00000000E+00
  0.00000000E+00  0.00000000E+00  0.00000000E+00
  0.00000000E+00  0.00000000E+00  0.00000000E+00
  0.00000000E+00  0.00000000E+00  0.00000000E+00
  0.00000000E+00  0.00000000E+00  0.00000000E+00
  0.00000000E+00  0.00000000E+00  0.00000000E+00
  0.00000000E+00  0.00000000E+00  0.00000000E+00
  0.00000000E+00  0.00000000E+00  0.00000000E+00
  0.00000000E+00  0.00000000E+00  0.00000000E+00
  0.00000000E+00  0.00000000E+00  0.00000000E+00
  0.00000000E+00  0.00000000E+00  0.00000000E+00
  0.00000000E+00  0.00000000E+00  0.00000000E+00
  0.00000000E+00  0.00000000E+00  0.00000000E+00
  0.00000000E+00  0.00000000E+00  0.00000000E+00
  0.00000000E+00  0.00000000E+00  0.00000000E+00
  0.00000000E+00  0.00000000E+00  0.00000000E+00
  0.00000000E+00  0.00000000E+00  0.00000000E+00
  0.00000000E+00  0.00000000E+00  0.00000000E+00
  0.00000000E+00  0.00000000E+00  0.00000000E+00
  0.00000000E+00  0.00000000E+00  0.00000000E+00
  0.00000000E+00  0.00000000E+00  0.00000000E+00
  0.00000000E+00  0.00000000E+00  0.00000000E+00
  0.00000000E+00  0.00000000E+00  0.00000000E+00
  0.00000000E+00  0.00000000E+00  0.00000000E+00
  0.00000000E+00  0.00000000E+00  0.00000000E+00
  0.00000000E+00  0.00000000E+00  0.00000000E+00
  0.00000000E+00  0.00000000E+00  0.00000000E+00
  0.00000000E+00  0.00000000E+00  0.00000000E+00
  0.00000000E+00  0.00000000E+00  0.00000000E+00
  0.00000000E+00  0.00000000E+00  0.00000000E+00
  0.00000000E+00  0.00000000E+00  0.00000000E+00
  0.00000000E+00  0.00000000E+00  0.00000000E+00
  0.00000000E+00  0.00000000E+00  0.00000000E+00
  0.00000000E+00  0.00000000E+00  0.00000000E+00
  0.00000000E+00  0.00000000E+00  0.00000000E+00
  0.00000000E+00  0.00000000E+00  0.00000000E+00
  0.00000000E+00  0.00000000E+00  0.00000000E+00
  0.00000000E+00  0.00000000E+00  0.00000000E+00
  0.00000000E+00  0.00000000E+00  0.00000000E+00
  0.00000000E+00  0.00000000E+00  0.00000000E+00
  0.00000000E+00  0.00000000E+00  0.00000000E+00
  0.00000000E+00  0.00000000E+00  0.00000000E+00
  0.00000000E+00  0.00000000E+00  0.00000000E+00
  0.00000000E+00  0.00000000E+00  0.00000000E+00
  0.00000000E+00  0.00000000E+00  0.00000000E+00
  0.00000000E+00  0.00000000E+00  0.00000000E+00
  0.00000000E+00  0.00000000E+00  0.00000000E+00
  0.00000000E+00  0.00000000E+00  0.00000000E+00
  0.00000000E+00  0.00000000E+00  0.00000000E+00
  0.00000000E+00  0.00000000E+00  0.00000000E+00
  0.00000000E+00  0.00000000E+00  0.00000000E+00
  0.00000000E+00  0.00000000E+00  0.00000000E+00
  0.00000000E+00  0.00000000E+00  0.00000000E+00
  0.00000000E+00  0.00000000E+00  0.00000000E+00
  0.00000000E+00  0.00000000E+00  0.00000000E+00
  0.00000000E+00  0.00000000E+00  0.00000000E+00
  0.00000000E+00  0.00000000E+00  0.00000000E+00
  0.00000000E+00  0.00000000E+00  0.00000000E+00
  0.00000000E+00  0.00000000E+00  0.00000000E+00
  0.00000000E+00  0.00000000E+00  0.00000000E+00
  0.00000000E+00  0.00000000E+00  0.00000000E+00
  0.00000000E+00  0.00000000E+00  0.00000000E+00
  0.00000000E+00  0.00000000E+00  0.00000000E+00
  0.00000000E+00  0.00000000E+00  0.00000000E+00
  0.00000000E+00  0.00000000E+00  0.00000000E+00
  0.00000000E+00  0.00000000E+00  0.00000000E+00
  0.00000000E+00  0.00000000E+00  0.00000000E+00
  0.00000000E+00  0.00000000E+00  0.00000000E+00
  0.00000000E+00  0.00000000E+00  0.00000000E+00
  0.00000000E+00  0.00000000E+00  0.00000000E+00
  0.00000000E+00  0.00000000E+00  0.00000000E+00
  0.00000000E+00  0.00000000E+00  0.00000000E+00
  0.00000000E+00  0.00000000E+00  0.00000000E+00
  0.00000000E+00  0.00000000E+00  0.00000000E+00
  0.00000000E+00  0.00000000E+00  0.00000000E+00
  0.00000000E+00  0.00000000E+00  0.00000000E+00
  0.00000000E+00  0.00000000E+00  0.00000000E+00
  0.00000000E+00  0.00000000E+00  0.00000000E+00
  0.00000000E+00  0.00000000E+00  0.00000000E+00
  0.00000000E+00  0.00000000E+00  0.00000000E+00
  0.00000000E+00  0.00000000E+00  0.00000000E+00
  0.00000000E+00  0.00000000E+00  0.00000000E+00
  0.00000000E+00  0.00000000E+00  0.00000000E+00
  0.00000000E+00  0.00000000E+00  0.00000000E+00
  0.00000000E+00  0.00000000E+00  0.00000000E+00
  0.00000000E+00  0.00000000E+00  0.00000000E+00
  0.00000000E+00  0.00000000E+00  0.00000000E+00
  0.00000000E+00  0.00000000E+00  0.00000000E+00
  0.00000000E+00  0.00000000E+00  0.00000000E+00
  0.00000000E+00  0.00000000E+00  0.00000000E+00
  0.00000000E+00  0.00000000E+00  0.00000000E+00
