New structure                           
   1.00000000000000     
    14.2799999999999994    0.0000000000000000    0.0000000000000000
     0.0000000000000000   14.2799999999999994    0.0000000000000000
     0.0000000000000000    0.0000000000000000   14.2799999999999994
   Ni   Al
   256     1
Direct
 -0.0075427660347493 -0.0075427660347493 -0.0075427660347493
 -0.0075427660347493  0.1325427660347493  0.1325427660347493
  0.1325427660347493 -0.0075427660347493  0.1325427660347493
  0.1325427660347493  0.1325427660347493 -0.0075427660347493
 -0.0013002313789002 -0.0013002313789002  0.2525226292890111
 -0.0002208647064514  0.1252208647064514  0.3751369519785655
  0.1252208647064514 -0.0002208647064514  0.3751369519785655
  0.1263002313789002  0.1263002313789002  0.2525226292890111
 -0.0000400276626787 -0.0000400276626787  0.5000115529095697
 -0.0000400276626787  0.1250400276626787  0.6249884470904303
  0.1250400276626787 -0.0000400276626787  0.6249884470904303
  0.1250400276626787  0.1250400276626787  0.5000115529095697
 -0.0002208647064514 -0.0002208647064514  0.7498630480214343
 -0.0013002313789002  0.1263002313789002  0.8724773707109890
  0.1263002313789002 -0.0013002313789002  0.8724773707109890
  0.1252208647064514  0.1252208647064514  0.7498630480214343
 -0.0013002313789002  0.2525226292890111 -0.0013002313789002
 -0.0002208647064514  0.3751369519785655  0.1252208647064514
  0.1263002313789002  0.2525226292890111  0.1263002313789002
  0.1252208647064514  0.3751369519785655 -0.0002208647064514
 -0.0009385023133759  0.2528368402873661  0.2528368402873661
 -0.0001798411136613  0.3762253608024722  0.3762253608024722
  0.1251373164753572  0.2507217346364078  0.3757195984589531
  0.1251373164753572  0.3757195984589531  0.2507217346364078
 -0.0000662424218025  0.2501633581242553  0.5001770344467694
 -0.0001266371240722  0.3753116644460571  0.6247566701814987
  0.1250662424218025  0.2501633581242553  0.6248229655532306
  0.1251266371240722  0.3753116644460571  0.5002433298185012
 -0.0001373164753571  0.2507217346364078  0.7492804015410468
 -0.0001373164753571  0.3757195984589531  0.8742782653635920
  0.1259385023133759  0.2528368402873661  0.8721631597126338
  0.1251798411136613  0.3762253608024722  0.7487746391975277
 -0.0000400276626787  0.5000115529095697 -0.0000400276626787
 -0.0000400276626787  0.6249884470904303  0.1250400276626787
  0.1250400276626787  0.5000115529095697  0.1250400276626787
  0.1250400276626787  0.6249884470904303 -0.0000400276626787
 -0.0000662424218025  0.5001770344467694  0.2501633581242553
 -0.0001266371240722  0.6247566701814987  0.3753116644460571
  0.1251266371240722  0.5002433298185012  0.3753116644460571
  0.1250662424218025  0.6248229655532306  0.2501633581242553
 -0.0001520889780168  0.5003160929355682  0.5003160929355682
 -0.0001520889780168  0.6246839070644318  0.6246839070644318
  0.1251520889780167  0.5003160929355682  0.6246839070644318
  0.1251520889780167  0.6246839070644318  0.5003160929355682
 -0.0001266371240722  0.5002433298185012  0.7496883355539430
 -0.0000662424218025  0.6248229655532306  0.8748366418757446
  0.1250662424218025  0.5001770344467694  0.8748366418757446
  0.1251266371240722  0.6247566701814987  0.7496883355539430
 -0.0002208647064514  0.7498630480214343 -0.0002208647064514
 -0.0013002313789002  0.8724773707109890  0.1263002313789002
  0.1252208647064514  0.7498630480214343  0.1252208647064514
  0.1263002313789002  0.8724773707109890 -0.0013002313789002
 -0.0001373164753571  0.7492804015410468  0.2507217346364078
 -0.0001373164753571  0.8742782653635920  0.3757195984589531
  0.1251798411136613  0.7487746391975277  0.3762253608024722
  0.1259385023133759  0.8721631597126338  0.2528368402873661
 -0.0001266371240722  0.7496883355539430  0.5002433298185012
 -0.0000662424218025  0.8748366418757446  0.6248229655532306
  0.1251266371240722  0.7496883355539430  0.6247566701814987
  0.1250662424218025  0.8748366418757446  0.5001770344467694
 -0.0001798411136613  0.7487746391975277  0.7487746391975277
 -0.0009385023133759  0.8721631597126338  0.8721631597126338
  0.1251373164753572  0.7492804015410468  0.8742782653635920
  0.1251373164753572  0.8742782653635920  0.7492804015410468
  0.2525226292890111 -0.0013002313789002 -0.0013002313789002
  0.2525226292890111  0.1263002313789002  0.1263002313789002
  0.3751369519785655 -0.0002208647064514  0.1252208647064514
  0.3751369519785655  0.1252208647064514 -0.0002208647064514
  0.2528368402873661 -0.0009385023133759  0.2528368402873661
  0.2507217346364078  0.1251373164753572  0.3757195984589531
  0.3762253608024722 -0.0001798411136613  0.3762253608024722
  0.3757195984589531  0.1251373164753572  0.2507217346364078
  0.2501633581242553 -0.0000662424218025  0.5001770344467694
  0.2501633581242553  0.1250662424218025  0.6248229655532306
  0.3753116644460571 -0.0001266371240722  0.6247566701814987
  0.3753116644460571  0.1251266371240722  0.5002433298185012
  0.2507217346364078 -0.0001373164753571  0.7492804015410468
  0.2528368402873661  0.1259385023133759  0.8721631597126338
  0.3757195984589531 -0.0001373164753571  0.8742782653635920
  0.3762253608024722  0.1251798411136613  0.7487746391975277
  0.2528368402873661  0.2528368402873661 -0.0009385023133759
  0.2507217346364078  0.3757195984589531  0.1251373164753572
  0.3757195984589531  0.2507217346364078  0.1251373164753572
  0.3762253608024722  0.3762253608024722 -0.0001798411136613
  0.2504811983007560  0.2504811983007560  0.2504811983007560
  0.2502746101381988  0.3752793700906709  0.3752793700906709
  0.3752793700906709  0.2502746101381988  0.3752793700906709
  0.3752793700906709  0.3752793700906709  0.2502746101381988
  0.2502285637288736  0.2502285637288736  0.5002280045740262
  0.2502612325725969  0.3753031880865911  0.6247327787874679
  0.3753031880865911  0.2502612325725969  0.6247327787874679
  0.3751940460961168  0.3751940460961168  0.5000362288789052
  0.2506300855429246  0.2506300855429246  0.7490971310133950
  0.2506300855429246  0.3759028689866051  0.8743699144570757
  0.3759028689866051  0.2506300855429246  0.8743699144570757
  0.3753615651504990  0.3753615651504990  0.7496384348495010
  0.2501633581242553  0.5001770344467694 -0.0000662424218025
  0.2501633581242553  0.6248229655532306  0.1250662424218025
  0.3753116644460571  0.5002433298185012  0.1251266371240722
  0.3753116644460571  0.6247566701814987 -0.0001266371240722
  0.2502285637288736  0.5002280045740262  0.2502285637288736
  0.2502612325725969  0.6247327787874679  0.3753031880865911
  0.3751940460961168  0.5000362288789052  0.3751940460961168
  0.3753031880865911  0.6247327787874679  0.2502612325725969
  0.2502534481000551  0.5000564450427135  0.5000564450427135
  0.2502534481000551  0.6249435549572864  0.6249435549572864
  0.3751931942002079  0.5001125738165333  0.6248874261834667
  0.3751931942002079  0.6248874261834667  0.5001125738165333
  0.2502612325725969  0.5002672212125321  0.7496968119134088
  0.2502285637288736  0.6247719954259738  0.8747714362711264
  0.3753031880865911  0.5002672212125321  0.8747387674274031
  0.3751940460961168  0.6249637711210948  0.7498059539038833
  0.2507217346364078  0.7492804015410468 -0.0001373164753571
  0.2528368402873661  0.8721631597126338  0.1259385023133759
  0.3762253608024722  0.7487746391975277  0.1251798411136613
  0.3757195984589531  0.8742782653635920 -0.0001373164753571
  0.2506300855429246  0.7490971310133950  0.2506300855429246
  0.2506300855429246  0.8743699144570757  0.3759028689866051
  0.3753615651504990  0.7496384348495010  0.3753615651504990
  0.3759028689866051  0.8743699144570757  0.2506300855429246
  0.2502612325725969  0.7496968119134088  0.5002672212125321
  0.2502285637288736  0.8747714362711264  0.6247719954259738
  0.3751940460961168  0.7498059539038833  0.6249637711210948
  0.3753031880865911  0.8747387674274031  0.5002672212125321
  0.2502746101381988  0.7497206299093292  0.7497206299093292
  0.2504811983007560  0.8745188016992439  0.8745188016992439
  0.3752793700906709  0.7497206299093292  0.8747253898618012
  0.3752793700906709  0.8747253898618012  0.7497206299093292
  0.5000115529095697 -0.0000400276626787 -0.0000400276626787
  0.5000115529095697  0.1250400276626787  0.1250400276626787
  0.6249884470904303 -0.0000400276626787  0.1250400276626787
  0.6249884470904303  0.1250400276626787 -0.0000400276626787
  0.5001770344467694 -0.0000662424218025  0.2501633581242553
  0.5002433298185012  0.1251266371240722  0.3753116644460571
  0.6247566701814987 -0.0001266371240722  0.3753116644460571
  0.6248229655532306  0.1250662424218025  0.2501633581242553
  0.5003160929355682 -0.0001520889780168  0.5003160929355682
  0.5003160929355682  0.1251520889780167  0.6246839070644318
  0.6246839070644318 -0.0001520889780168  0.6246839070644318
  0.6246839070644318  0.1251520889780167  0.5003160929355682
  0.5002433298185012 -0.0001266371240722  0.7496883355539430
  0.5001770344467694  0.1250662424218025  0.8748366418757446
  0.6248229655532306 -0.0000662424218025  0.8748366418757446
  0.6247566701814987  0.1251266371240722  0.7496883355539430
  0.5001770344467694  0.2501633581242553 -0.0000662424218025
  0.5002433298185012  0.3753116644460571  0.1251266371240722
  0.6248229655532306  0.2501633581242553  0.1250662424218025
  0.6247566701814987  0.3753116644460571 -0.0001266371240722
  0.5002280045740262  0.2502285637288736  0.2502285637288736
  0.5000362288789052  0.3751940460961168  0.3751940460961168
  0.6247327787874679  0.2502612325725969  0.3753031880865911
  0.6247327787874679  0.3753031880865911  0.2502612325725969
  0.5000564450427135  0.2502534481000551  0.5000564450427135
  0.5001125738165333  0.3751931942002079  0.6248874261834667
  0.6249435549572864  0.2502534481000551  0.6249435549572864
  0.6248874261834667  0.3751931942002079  0.5001125738165333
  0.5002672212125321  0.2502612325725969  0.7496968119134088
  0.5002672212125321  0.3753031880865911  0.8747387674274031
  0.6247719954259738  0.2502285637288736  0.8747714362711264
  0.6249637711210948  0.3751940460961168  0.7498059539038833
  0.5003160929355682  0.5003160929355682 -0.0001520889780168
  0.5003160929355682  0.6246839070644318  0.1251520889780167
  0.6246839070644318  0.5003160929355682  0.1251520889780167
  0.6246839070644318  0.6246839070644318 -0.0001520889780168
  0.5000564450427135  0.5000564450427135  0.2502534481000551
  0.5001125738165333  0.6248874261834667  0.3751931942002079
  0.6248874261834667  0.5001125738165333  0.3751931942002079
  0.6249435549572864  0.6249435549572864  0.2502534481000551
  0.5000965857465669  0.5000965857465669  0.5000965857465669
  0.5000965857465669  0.6249034142534331  0.6249034142534331
  0.6249034142534331  0.5000965857465669  0.6249034142534331
  0.6249034142534331  0.6249034142534331  0.5000965857465669
  0.5001125738165333  0.5001125738165333  0.7498068057997922
  0.5000564450427135  0.6249435549572864  0.8747465518999449
  0.6249435549572864  0.5000564450427135  0.8747465518999449
  0.6248874261834667  0.6248874261834667  0.7498068057997922
  0.5002433298185012  0.7496883355539430 -0.0001266371240722
  0.5001770344467694  0.8748366418757446  0.1250662424218025
  0.6247566701814987  0.7496883355539430  0.1251266371240722
  0.6248229655532306  0.8748366418757446 -0.0000662424218025
  0.5002672212125321  0.7496968119134088  0.2502612325725969
  0.5002672212125321  0.8747387674274031  0.3753031880865911
  0.6249637711210948  0.7498059539038833  0.3751940460961168
  0.6247719954259738  0.8747714362711264  0.2502285637288736
  0.5001125738165333  0.7498068057997922  0.5001125738165333
  0.5000564450427135  0.8747465518999449  0.6249435549572864
  0.6248874261834667  0.7498068057997922  0.6248874261834667
  0.6249435549572864  0.8747465518999449  0.5000564450427135
  0.5000362288789052  0.7498059539038833  0.7498059539038833
  0.5002280045740262  0.8747714362711264  0.8747714362711264
  0.6247327787874679  0.7496968119134088  0.8747387674274031
  0.6247327787874679  0.8747387674274031  0.7496968119134088
  0.7498630480214343 -0.0002208647064514 -0.0002208647064514
  0.7498630480214343  0.1252208647064514  0.1252208647064514
  0.8724773707109890 -0.0013002313789002  0.1263002313789002
  0.8724773707109890  0.1263002313789002 -0.0013002313789002
  0.7492804015410468 -0.0001373164753571  0.2507217346364078
  0.7487746391975277  0.1251798411136613  0.3762253608024722
  0.8742782653635920 -0.0001373164753571  0.3757195984589531
  0.8721631597126338  0.1259385023133759  0.2528368402873661
  0.7496883355539430 -0.0001266371240722  0.5002433298185012
  0.7496883355539430  0.1251266371240722  0.6247566701814987
  0.8748366418757446 -0.0000662424218025  0.6248229655532306
  0.8748366418757446  0.1250662424218025  0.5001770344467694
  0.7487746391975277 -0.0001798411136613  0.7487746391975277
  0.7492804015410468  0.1251373164753572  0.8742782653635920
  0.8721631597126338 -0.0009385023133759  0.8721631597126338
  0.8742782653635920  0.1251373164753572  0.7492804015410468
  0.7492804015410468  0.2507217346364078 -0.0001373164753571
  0.7487746391975277  0.3762253608024722  0.1251798411136613
  0.8721631597126338  0.2528368402873661  0.1259385023133759
  0.8742782653635920  0.3757195984589531 -0.0001373164753571
  0.7490971310133950  0.2506300855429246  0.2506300855429246
  0.7496384348495010  0.3753615651504990  0.3753615651504990
  0.8743699144570757  0.2506300855429246  0.3759028689866051
  0.8743699144570757  0.3759028689866051  0.2506300855429246
  0.7496968119134088  0.2502612325725969  0.5002672212125321
  0.7498059539038833  0.3751940460961168  0.6249637711210948
  0.8747714362711264  0.2502285637288736  0.6247719954259738
  0.8747387674274031  0.3753031880865911  0.5002672212125321
  0.7497206299093292  0.2502746101381988  0.7497206299093292
  0.7497206299093292  0.3752793700906709  0.8747253898618012
  0.8745188016992439  0.2504811983007560  0.8745188016992439
  0.8747253898618012  0.3752793700906709  0.7497206299093292
  0.7496883355539430  0.5002433298185012 -0.0001266371240722
  0.7496883355539430  0.6247566701814987  0.1251266371240722
  0.8748366418757446  0.5001770344467694  0.1250662424218025
  0.8748366418757446  0.6248229655532306 -0.0000662424218025
  0.7496968119134088  0.5002672212125321  0.2502612325725969
  0.7498059539038833  0.6249637711210948  0.3751940460961168
  0.8747387674274031  0.5002672212125321  0.3753031880865911
  0.8747714362711264  0.6247719954259738  0.2502285637288736
  0.7498068057997922  0.5001125738165333  0.5001125738165333
  0.7498068057997922  0.6248874261834667  0.6248874261834667
  0.8747465518999449  0.5000564450427135  0.6249435549572864
  0.8747465518999449  0.6249435549572864  0.5000564450427135
  0.7498059539038833  0.5000362288789052  0.7498059539038833
  0.7496968119134088  0.6247327787874679  0.8747387674274031
  0.8747714362711264  0.5002280045740262  0.8747714362711264
  0.8747387674274031  0.6247327787874679  0.7496968119134088
  0.7487746391975277  0.7487746391975277 -0.0001798411136613
  0.7492804015410468  0.8742782653635920  0.1251373164753572
  0.8742782653635920  0.7492804015410468  0.1251373164753572
  0.8721631597126339  0.8721631597126338 -0.0009385023133759
  0.7497206299093292  0.7497206299093292  0.2502746101381988
  0.7497206299093292  0.8747253898618012  0.3752793700906709
  0.8747253898618012  0.7497206299093292  0.3752793700906709
  0.8745188016992439  0.8745188016992439  0.2504811983007560
  0.7498059539038833  0.7498059539038833  0.5000362288789052
  0.7496968119134088  0.8747387674274031  0.6247327787874679
  0.8747387674274031  0.7496968119134088  0.6247327787874679
  0.8747714362711264  0.8747714362711264  0.5002280045740262
  0.7496384348495010  0.7496384348495010  0.7496384348495010
  0.7490971310133950  0.8743699144570757  0.8743699144570757
  0.8743699144570757  0.7490971310133950  0.8743699144570757
  0.8743699144570757  0.8743699144570757  0.7490971310133950
  0.0625000000000000  0.0625000000000000  0.0625000000000000
 
  0.00000000E+00  0.00000000E+00  0.00000000E+00
  0.00000000E+00  0.00000000E+00  0.00000000E+00
  0.00000000E+00  0.00000000E+00  0.00000000E+00
  0.00000000E+00  0.00000000E+00  0.00000000E+00
  0.00000000E+00  0.00000000E+00  0.00000000E+00
  0.00000000E+00  0.00000000E+00  0.00000000E+00
  0.00000000E+00  0.00000000E+00  0.00000000E+00
  0.00000000E+00  0.00000000E+00  0.00000000E+00
  0.00000000E+00  0.00000000E+00  0.00000000E+00
  0.00000000E+00  0.00000000E+00  0.00000000E+00
  0.00000000E+00  0.00000000E+00  0.00000000E+00
  0.00000000E+00  0.00000000E+00  0.00000000E+00
  0.00000000E+00  0.00000000E+00  0.00000000E+00
  0.00000000E+00  0.00000000E+00  0.00000000E+00
  0.00000000E+00  0.00000000E+00  0.00000000E+00
  0.00000000E+00  0.00000000E+00  0.00000000E+00
  0.00000000E+00  0.00000000E+00  0.00000000E+00
  0.00000000E+00  0.00000000E+00  0.00000000E+00
  0.00000000E+00  0.00000000E+00  0.00000000E+00
  0.00000000E+00  0.00000000E+00  0.00000000E+00
  0.00000000E+00  0.00000000E+00  0.00000000E+00
  0.00000000E+00  0.00000000E+00  0.00000000E+00
  0.00000000E+00  0.00000000E+00  0.00000000E+00
  0.00000000E+00  0.00000000E+00  0.00000000E+00
  0.00000000E+00  0.00000000E+00  0.00000000E+00
  0.00000000E+00  0.00000000E+00  0.00000000E+00
  0.00000000E+00  0.00000000E+00  0.00000000E+00
  0.00000000E+00  0.00000000E+00  0.00000000E+00
  0.00000000E+00  0.00000000E+00  0.00000000E+00
  0.00000000E+00  0.00000000E+00  0.00000000E+00
  0.00000000E+00  0.00000000E+00  0.00000000E+00
  0.00000000E+00  0.00000000E+00  0.00000000E+00
  0.00000000E+00  0.00000000E+00  0.00000000E+00
  0.00000000E+00  0.00000000E+00  0.00000000E+00
  0.00000000E+00  0.00000000E+00  0.00000000E+00
  0.00000000E+00  0.00000000E+00  0.00000000E+00
  0.00000000E+00  0.00000000E+00  0.00000000E+00
  0.00000000E+00  0.00000000E+00  0.00000000E+00
  0.00000000E+00  0.00000000E+00  0.00000000E+00
  0.00000000E+00  0.00000000E+00  0.00000000E+00
  0.00000000E+00  0.00000000E+00  0.00000000E+00
  0.00000000E+00  0.00000000E+00  0.00000000E+00
  0.00000000E+00  0.00000000E+00  0.00000000E+00
  0.00000000E+00  0.00000000E+00  0.00000000E+00
  0.00000000E+00  0.00000000E+00  0.00000000E+00
  0.00000000E+00  0.00000000E+00  0.00000000E+00
  0.00000000E+00  0.00000000E+00  0.00000000E+00
  0.00000000E+00  0.00000000E+00  0.00000000E+00
  0.00000000E+00  0.00000000E+00  0.00000000E+00
  0.00000000E+00  0.00000000E+00  0.00000000E+00
  0.00000000E+00  0.00000000E+00  0.00000000E+00
  0.00000000E+00  0.00000000E+00  0.00000000E+00
  0.00000000E+00  0.00000000E+00  0.00000000E+00
  0.00000000E+00  0.00000000E+00  0.00000000E+00
  0.00000000E+00  0.00000000E+00  0.00000000E+00
  0.00000000E+00  0.00000000E+00  0.00000000E+00
  0.00000000E+00  0.00000000E+00  0.00000000E+00
  0.00000000E+00  0.00000000E+00  0.00000000E+00
  0.00000000E+00  0.00000000E+00  0.00000000E+00
  0.00000000E+00  0.00000000E+00  0.00000000E+00
  0.00000000E+00  0.00000000E+00  0.00000000E+00
  0.00000000E+00  0.00000000E+00  0.00000000E+00
  0.00000000E+00  0.00000000E+00  0.00000000E+00
  0.00000000E+00  0.00000000E+00  0.00000000E+00
  0.00000000E+00  0.00000000E+00  0.00000000E+00
  0.00000000E+00  0.00000000E+00  0.00000000E+00
  0.00000000E+00  0.00000000E+00  0.00000000E+00
  0.00000000E+00  0.00000000E+00  0.00000000E+00
  0.00000000E+00  0.00000000E+00  0.00000000E+00
  0.00000000E+00  0.00000000E+00  0.00000000E+00
  0.00000000E+00  0.00000000E+00  0.00000000E+00
  0.00000000E+00  0.00000000E+00  0.00000000E+00
  0.00000000E+00  0.00000000E+00  0.00000000E+00
  0.00000000E+00  0.00000000E+00  0.00000000E+00
  0.00000000E+00  0.00000000E+00  0.00000000E+00
  0.00000000E+00  0.00000000E+00  0.00000000E+00
  0.00000000E+00  0.00000000E+00  0.00000000E+00
  0.00000000E+00  0.00000000E+00  0.00000000E+00
  0.00000000E+00  0.00000000E+00  0.00000000E+00
  0.00000000E+00  0.00000000E+00  0.00000000E+00
  0.00000000E+00  0.00000000E+00  0.00000000E+00
  0.00000000E+00  0.00000000E+00  0.00000000E+00
  0.00000000E+00  0.00000000E+00  0.00000000E+00
  0.00000000E+00  0.00000000E+00  0.00000000E+00
  0.00000000E+00  0.00000000E+00  0.00000000E+00
  0.00000000E+00  0.00000000E+00  0.00000000E+00
  0.00000000E+00  0.00000000E+00  0.00000000E+00
  0.00000000E+00  0.00000000E+00  0.00000000E+00
  0.00000000E+00  0.00000000E+00  0.00000000E+00
  0.00000000E+00  0.00000000E+00  0.00000000E+00
  0.00000000E+00  0.00000000E+00  0.00000000E+00
  0.00000000E+00  0.00000000E+00  0.00000000E+00
  0.00000000E+00  0.00000000E+00  0.00000000E+00
  0.00000000E+00  0.00000000E+00  0.00000000E+00
  0.00000000E+00  0.00000000E+00  0.00000000E+00
  0.00000000E+00  0.00000000E+00  0.00000000E+00
  0.00000000E+00  0.00000000E+00  0.00000000E+00
  0.00000000E+00  0.00000000E+00  0.00000000E+00
  0.00000000E+00  0.00000000E+00  0.00000000E+00
  0.00000000E+00  0.00000000E+00  0.00000000E+00
  0.00000000E+00  0.00000000E+00  0.00000000E+00
  0.00000000E+00  0.00000000E+00  0.00000000E+00
  0.00000000E+00  0.00000000E+00  0.00000000E+00
  0.00000000E+00  0.00000000E+00  0.00000000E+00
  0.00000000E+00  0.00000000E+00  0.00000000E+00
  0.00000000E+00  0.00000000E+00  0.00000000E+00
  0.00000000E+00  0.00000000E+00  0.00000000E+00
  0.00000000E+00  0.00000000E+00  0.00000000E+00
  0.00000000E+00  0.00000000E+00  0.00000000E+00
  0.00000000E+00  0.00000000E+00  0.00000000E+00
  0.00000000E+00  0.00000000E+00  0.00000000E+00
  0.00000000E+00  0.00000000E+00  0.00000000E+00
  0.00000000E+00  0.00000000E+00  0.00000000E+00
  0.00000000E+00  0.00000000E+00  0.00000000E+00
  0.00000000E+00  0.00000000E+00  0.00000000E+00
  0.00000000E+00  0.00000000E+00  0.00000000E+00
  0.00000000E+00  0.00000000E+00  0.00000000E+00
  0.00000000E+00  0.00000000E+00  0.00000000E+00
  0.00000000E+00  0.00000000E+00  0.00000000E+00
  0.00000000E+00  0.00000000E+00  0.00000000E+00
  0.00000000E+00  0.00000000E+00  0.00000000E+00
  0.00000000E+00  0.00000000E+00  0.00000000E+00
  0.00000000E+00  0.00000000E+00  0.00000000E+00
  0.00000000E+00  0.00000000E+00  0.00000000E+00
  0.00000000E+00  0.00000000E+00  0.00000000E+00
  0.00000000E+00  0.00000000E+00  0.00000000E+00
  0.00000000E+00  0.00000000E+00  0.00000000E+00
  0.00000000E+00  0.00000000E+00  0.00000000E+00
  0.00000000E+00  0.00000000E+00  0.00000000E+00
  0.00000000E+00  0.00000000E+00  0.00000000E+00
  0.00000000E+00  0.00000000E+00  0.00000000E+00
  0.00000000E+00  0.00000000E+00  0.00000000E+00
  0.00000000E+00  0.00000000E+00  0.00000000E+00
  0.00000000E+00  0.00000000E+00  0.00000000E+00
  0.00000000E+00  0.00000000E+00  0.00000000E+00
  0.00000000E+00  0.00000000E+00  0.00000000E+00
  0.00000000E+00  0.00000000E+00  0.00000000E+00
  0.00000000E+00  0.00000000E+00  0.00000000E+00
  0.00000000E+00  0.00000000E+00  0.00000000E+00
  0.00000000E+00  0.00000000E+00  0.00000000E+00
  0.00000000E+00  0.00000000E+00  0.00000000E+00
  0.00000000E+00  0.00000000E+00  0.00000000E+00
  0.00000000E+00  0.00000000E+00  0.00000000E+00
  0.00000000E+00  0.00000000E+00  0.00000000E+00
  0.00000000E+00  0.00000000E+00  0.00000000E+00
  0.00000000E+00  0.00000000E+00  0.00000000E+00
  0.00000000E+00  0.00000000E+00  0.00000000E+00
  0.00000000E+00  0.00000000E+00  0.00000000E+00
  0.00000000E+00  0.00000000E+00  0.00000000E+00
  0.00000000E+00  0.00000000E+00  0.00000000E+00
  0.00000000E+00  0.00000000E+00  0.00000000E+00
  0.00000000E+00  0.00000000E+00  0.00000000E+00
  0.00000000E+00  0.00000000E+00  0.00000000E+00
  0.00000000E+00  0.00000000E+00  0.00000000E+00
  0.00000000E+00  0.00000000E+00  0.00000000E+00
  0.00000000E+00  0.00000000E+00  0.00000000E+00
  0.00000000E+00  0.00000000E+00  0.00000000E+00
  0.00000000E+00  0.00000000E+00  0.00000000E+00
  0.00000000E+00  0.00000000E+00  0.00000000E+00
  0.00000000E+00  0.00000000E+00  0.00000000E+00
  0.00000000E+00  0.00000000E+00  0.00000000E+00
  0.00000000E+00  0.00000000E+00  0.00000000E+00
  0.00000000E+00  0.00000000E+00  0.00000000E+00
  0.00000000E+00  0.00000000E+00  0.00000000E+00
  0.00000000E+00  0.00000000E+00  0.00000000E+00
  0.00000000E+00  0.00000000E+00  0.00000000E+00
  0.00000000E+00  0.00000000E+00  0.00000000E+00
  0.00000000E+00  0.00000000E+00  0.00000000E+00
  0.00000000E+00  0.00000000E+00  0.00000000E+00
  0.00000000E+00  0.00000000E+00  0.00000000E+00
  0.00000000E+00  0.00000000E+00  0.00000000E+00
  0.00000000E+00  0.00000000E+00  0.00000000E+00
  0.00000000E+00  0.00000000E+00  0.00000000E+00
  0.00000000E+00  0.00000000E+00  0.00000000E+00
  0.00000000E+00  0.00000000E+00  0.00000000E+00
  0.00000000E+00  0.00000000E+00  0.00000000E+00
  0.00000000E+00  0.00000000E+00  0.00000000E+00
  0.00000000E+00  0.00000000E+00  0.00000000E+00
  0.00000000E+00  0.00000000E+00  0.00000000E+00
  0.00000000E+00  0.00000000E+00  0.00000000E+00
  0.00000000E+00  0.00000000E+00  0.00000000E+00
  0.00000000E+00  0.00000000E+00  0.00000000E+00
  0.00000000E+00  0.00000000E+00  0.00000000E+00
  0.00000000E+00  0.00000000E+00  0.00000000E+00
  0.00000000E+00  0.00000000E+00  0.00000000E+00
  0.00000000E+00  0.00000000E+00  0.00000000E+00
  0.00000000E+00  0.00000000E+00  0.00000000E+00
  0.00000000E+00  0.00000000E+00  0.00000000E+00
  0.00000000E+00  0.00000000E+00  0.00000000E+00
  0.00000000E+00  0.00000000E+00  0.00000000E+00
  0.00000000E+00  0.00000000E+00  0.00000000E+00
  0.00000000E+00  0.00000000E+00  0.00000000E+00
  0.00000000E+00  0.00000000E+00  0.00000000E+00
  0.00000000E+00  0.00000000E+00  0.00000000E+00
  0.00000000E+00  0.00000000E+00  0.00000000E+00
  0.00000000E+00  0.00000000E+00  0.00000000E+00
  0.00000000E+00  0.00000000E+00  0.00000000E+00
  0.00000000E+00  0.00000000E+00  0.00000000E+00
  0.00000000E+00  0.00000000E+00  0.00000000E+00
  0.00000000E+00  0.00000000E+00  0.00000000E+00
  0.00000000E+00  0.00000000E+00  0.00000000E+00
  0.00000000E+00  0.00000000E+00  0.00000000E+00
  0.00000000E+00  0.00000000E+00  0.00000000E+00
  0.00000000E+00  0.00000000E+00  0.00000000E+00
  0.00000000E+00  0.00000000E+00  0.00000000E+00
  0.00000000E+00  0.00000000E+00  0.00000000E+00
  0.00000000E+00  0.00000000E+00  0.00000000E+00
  0.00000000E+00  0.00000000E+00  0.00000000E+00
  0.00000000E+00  0.00000000E+00  0.00000000E+00
  0.00000000E+00  0.00000000E+00  0.00000000E+00
  0.00000000E+00  0.00000000E+00  0.00000000E+00
  0.00000000E+00  0.00000000E+00  0.00000000E+00
  0.00000000E+00  0.00000000E+00  0.00000000E+00
  0.00000000E+00  0.00000000E+00  0.00000000E+00
  0.00000000E+00  0.00000000E+00  0.00000000E+00
  0.00000000E+00  0.00000000E+00  0.00000000E+00
  0.00000000E+00  0.00000000E+00  0.00000000E+00
  0.00000000E+00  0.00000000E+00  0.00000000E+00
  0.00000000E+00  0.00000000E+00  0.00000000E+00
  0.00000000E+00  0.00000000E+00  0.00000000E+00
  0.00000000E+00  0.00000000E+00  0.00000000E+00
  0.00000000E+00  0.00000000E+00  0.00000000E+00
  0.00000000E+00  0.00000000E+00  0.00000000E+00
  0.00000000E+00  0.00000000E+00  0.00000000E+00
  0.00000000E+00  0.00000000E+00  0.00000000E+00
  0.00000000E+00  0.00000000E+00  0.00000000E+00
  0.00000000E+00  0.00000000E+00  0.00000000E+00
  0.00000000E+00  0.00000000E+00  0.00000000E+00
  0.00000000E+00  0.00000000E+00  0.00000000E+00
  0.00000000E+00  0.00000000E+00  0.00000000E+00
  0.00000000E+00  0.00000000E+00  0.00000000E+00
  0.00000000E+00  0.00000000E+00  0.00000000E+00
  0.00000000E+00  0.00000000E+00  0.00000000E+00
  0.00000000E+00  0.00000000E+00  0.00000000E+00
  0.00000000E+00  0.00000000E+00  0.00000000E+00
  0.00000000E+00  0.00000000E+00  0.00000000E+00
  0.00000000E+00  0.00000000E+00  0.00000000E+00
  0.00000000E+00  0.00000000E+00  0.00000000E+00
  0.00000000E+00  0.00000000E+00  0.00000000E+00
  0.00000000E+00  0.00000000E+00  0.00000000E+00
  0.00000000E+00  0.00000000E+00  0.00000000E+00
  0.00000000E+00  0.00000000E+00  0.00000000E+00
  0.00000000E+00  0.00000000E+00  0.00000000E+00
  0.00000000E+00  0.00000000E+00  0.00000000E+00
  0.00000000E+00  0.00000000E+00  0.00000000E+00
  0.00000000E+00  0.00000000E+00  0.00000000E+00
  0.00000000E+00  0.00000000E+00  0.00000000E+00
  0.00000000E+00  0.00000000E+00  0.00000000E+00
  0.00000000E+00  0.00000000E+00  0.00000000E+00
  0.00000000E+00  0.00000000E+00  0.00000000E+00
  0.00000000E+00  0.00000000E+00  0.00000000E+00
  0.00000000E+00  0.00000000E+00  0.00000000E+00
  0.00000000E+00  0.00000000E+00  0.00000000E+00
  0.00000000E+00  0.00000000E+00  0.00000000E+00
  0.00000000E+00  0.00000000E+00  0.00000000E+00
  0.00000000E+00  0.00000000E+00  0.00000000E+00
  0.00000000E+00  0.00000000E+00  0.00000000E+00
