New structure                           
   1.00000000000000     
     0.0000000000000000  -15.1462217587961998    0.0000000000000000
     0.0000000000000000   -7.5731108793980804  -13.1170128144700993
    29.0000000000000000    0.0000000000000000    0.0000000000000000
   Ni   N 
   252     2
Direct
  0.4463842069416644  0.6127953313511983  0.5209471245531885
  0.6169105096719467  0.4415701132303097  0.5206227651269358
  0.7795471204155690  0.2763706200064702  0.5188536157842198
  0.9444155704693835  0.1112751865398681  0.5185975583860541
  0.9447746886947860  0.2776007191970762  0.5187599733192351
  0.9444944363573154  0.4441785801640311  0.5186066713989744
  0.7782421233231951  0.6111930633283108  0.5184454214684406
  0.6112007331397475  0.7779791254599207  0.5185382801444247
  0.4445745695875549  0.9448111425368234  0.5184472507735114
  0.6112767862576312  0.9443723679574658  0.5186285491899112
  0.7776700356414229  0.9444098881187513  0.5186228842076614
  0.9438646120898454  0.7782418892926437  0.5185280970532034
  0.9437776029437258  0.6111522093298415  0.5184859333990965
  0.8331072222119826  0.6670483349188875  0.4499304408269948
  0.6667224018529118  0.8333466576780285  0.4500582987446455
  0.7222027511967162  0.8888901805374119  0.3808230285118091
  0.8888793600469844  0.7223378121670336  0.3807902279037598
  0.9443518326195811  0.7778266432658553  0.3115979070582074
  0.7777466689963909  0.9444651020982040  0.3116357180043000
  0.9444445098058343  0.9444529689598472  0.3116148142850261
  0.8887798190512370  0.8888222745696229  0.3807421537856423
  0.8333275249693479  0.8333292997046468  0.4500141019049820
  0.7776499747813905  0.7779643408711338  0.5185973220518700
  0.7794222550852592  0.4441075505026346  0.5187903468256261
  0.6739745576072890  0.4997223375403613  0.4501122272585116
  0.8342307635223879  0.3328727380916109  0.4501434895460953
  0.8888613757189751  0.3889355048557171  0.3808514717334602
  0.7225780771655155  0.5557981060944084  0.3806673511039046
  0.7777818129962261  0.6111410343961013  0.3115905049942977
  0.6110489371226562  0.7778178164934985  0.3116909952491861
  0.6666339587669839  0.8333638720134808  0.2426317384100301
  0.8333309216476462  0.6667300605663967  0.2426411431627735
  0.8889398285546594  0.7222054424260262  0.1734600122641769
  0.7222642200461559  0.8888711957829099  0.1734485764817364
  0.7777681092522342  0.9444314796279771  0.1045023259680906
  0.9445466497802744  0.7777416627011310  0.1045265724850191
  0.9444847819184071  0.9444884238688744  0.1045329390491339
  0.8889187151387132  0.8888541575038160  0.1734625554383732
  0.8332306686644085  0.8333828800571510  0.2426730500630775
  0.7777220512032675  0.7778244741330609  0.3116372778153003
  0.7221724760027574  0.7223135238754673  0.3807888803555580
  0.6667711863552516  0.6668451031245933  0.4500277164256826
  0.5555933684520462  0.7222857385794546  0.3808727879909235
  0.5001503697096058  0.8334846667021988  0.4499983854596870
  0.3331946245289174  0.8408167261436055  0.4500380604575602
  0.2749708037024176  0.7834797219973136  0.5204081770442717
  0.1096837778026616  0.9463276392588913  0.5187658704409581
  0.2774124045519716  0.9460103741822102  0.5187347648762282
  0.4440710154484059  0.7788131489130872  0.5190126818587978
  0.5015653951010149  0.6679458596739225  0.4502131761740493
  0.6122510442976324  0.6108404532735932  0.5189581658195234
  0.6110675416887091  0.9444805679644049  0.3116229172043139
  0.4445192398397181  0.9444723390713008  0.3115998198234470
  0.3891372659467700  0.8892810567215782  0.3805811802296772
  0.3907015698691045  0.7238629273835262  0.3794633383164534
  0.2197564160994995  0.7233541129424881  0.3798447017232930
  0.0550168837042669  0.8892244508540479  0.3807014436619641
 -0.0001371273951353  0.8331249612621122  0.4498432452929556
  0.1705107013193179  0.6638461793942301  0.4519970879532160
  0.2618694476005557  0.6279091552222473  0.5404045774858434
  0.1062787728170120  0.6116437028999709  0.5195806237319676
  0.2757788184686046  0.4427794836360146  0.5190833721538329
  0.4445816784315786  0.2767422935660436  0.5189997767252956
  0.6113349208004746  0.1107221210674596  0.5185325139289473
  0.6671473334510760  0.1660646155034318  0.4500727426109575
  0.8331646432687759  0.9998638841674069  0.4499261368015647
  0.8887471202315852  0.0555115706434882  0.3807697334098130
  0.7226434982421311  0.2215632026731544  0.3806418323181703
  0.7777329666638130  0.2778187407948991  0.3116623416037337
  0.6110542278223013  0.4444719193831622  0.3116768545056098
  0.6666449237199370  0.4999465397660250  0.2427090722795236
  0.4999029961811499  0.6665653168209136  0.2427932722803255
  0.5554517591107443  0.7221437543301160  0.1735328338249408
  0.3888046081609462  0.8888223224288366  0.1734885376790430
  0.3333079598921523  0.8333232869879104  0.2427054159044189
  0.2777724625775259  0.7778186690281844  0.3116474764161340
  0.1111081686821768  0.9444128908532226  0.3116687251594379
  0.2778138788968429  0.9444101492821076  0.3116663584717326
  0.2222056846376728  0.8888801144122447  0.3809245311159308
  0.1607355261627781  0.8395840252789986  0.4501705087789108
  0.1055723503325896  0.7840582839984321  0.5191804274318598
  0.9444180481269108  0.6111325927994092  0.3116039841014824
  0.9444287204639041  0.4445157805722100  0.3116520304739911
  0.9444616772544682  0.2777651966601332  0.3116452408306939
  0.9444622811982878  0.1110357242044273  0.3116528834659288
  0.8333248544285035  0.1666455720933026  0.2426699283851717
  0.6666231357794957  0.1666564639664078  0.2426753723858233
  0.4999414726546148  0.3335044078799196  0.2427512028228255
  0.5554937321145416  0.3889464042931060  0.1735789982521571
  0.3888313669850794  0.5555910972793930  0.1736182928125000
  0.4444307400784685  0.6110854310050711  0.1046297600868142
  0.6111153325322047  0.4444390084520410  0.1045647737224671
  0.7777956685761909  0.2777834223124774  0.1044722199650746
  0.7221686721863828  0.2223149529579674  0.1735174434667799
  0.7222110480970637  0.0556217574822379  0.1734989885786517
  0.8888683256360213  0.0555828373626232  0.1734708427237045
  0.8333603382474967  0.9999365732824740  0.2426359198617183
  0.7777759460045041  0.1110620504605002  0.3115873211308167
  0.6111052686602997  0.1110847267708105  0.3116531106810418
  0.5557361721997277  0.0554319298239461  0.3807804226004587
  0.5004488668304016  0.9996697649746710  0.4499743806065545
  0.3335234671337335  0.1648838782530971  0.4500179506995399
  0.1658584588660964  0.3328176810925533  0.4501013614755818
  0.9991662029414342  0.5002936585233514  0.4500589986746504
  0.0548214468459580  0.5559199546779715  0.3806760182706465
  0.2225559103290884  0.3891086166180945  0.3810497021098099
  0.2774916286578090  0.4444993220938616  0.3112909966572827
  0.1104382519505476  0.6115362433503262  0.3112874180748364
  0.1668433405357512  0.6666014575206572  0.2427949262810450
  0.0000568582157732  0.8332984292288111  0.2426594237330413
  0.0556606855498087  0.8888001748889985  0.1735133638826997
  0.2223174644863600  0.7221684802158389  0.1735782767945818
  0.2777861070320460  0.7777553334960785  0.1045134888199617
  0.1111284236241328  0.9444385222745851  0.1045114103904053
  0.2777504511457857  0.9444664342948177  0.1044790694796405
  0.4444015782029140  0.9444558974486541  0.1045535917857238
  0.6110786979105195  0.7777220304935908  0.1045785616171619
  0.7778086894093134  0.6110436460149599  0.1045532421243456
  0.7221478365713185  0.5555281930294954  0.1735186248581856
  0.8333300615204742  0.5000251824037011  0.2426660659321611
  0.8888657097726920  0.3888996701939449  0.1734684209735202
  0.8333042841996513  0.3333425740107123  0.2426795418965801
  0.7222025454369636  0.3889073996432963  0.1734718151097386
  0.6666419005706102  0.3334106210369802  0.2427145661982031
  0.6111731597351927  0.2775339850922175  0.3114268809277541
  0.5564280955550438  0.2211717799770883  0.3807962506891631
  0.4454353419348010  0.2758473431135098  0.3104644173491991
  0.3933369505959050  0.3810453691869287  0.3770453829193785
  0.5026359982592437  0.3291177253091572  0.4501738621523959
  0.3307466261036366  0.4785921865557280  0.4436340808176421
  0.3891086428563880  0.5554931519270341  0.3813419535931224
  0.4442735940949778  0.6110207745059097  0.3119492668005138
  0.2781558118738012  0.6110921076327985  0.3118288690780954
  0.3333823897236021  0.5000736816814423  0.2426367266349715
  0.1666645950835485  0.5000012844033678  0.2426657069002990
  0.9999859790410009  0.5000163427259638  0.2426820707415679
  0.1666882502723336  0.3333768167554385  0.2426610294339527
  0.2222861877014072  0.3888866218049518  0.1734759486743728
  0.3887953915922788  0.2223515880144021  0.1734746935037625
  0.5555170994725549  0.0556430464441184  0.1734793650972161
  0.5000613146335544  0.9999165920455633  0.2426350303472324
  0.3333817042053258  0.1666570778452190  0.2426573683487367
  0.2777906561943375  0.2778200673570058  0.3116585527318105
  0.1111263650452488  0.2778030067648669  0.3116475447131948
  0.0555690617700548  0.2222122916975236  0.3808869904022928
 -0.0000054785576144  0.1667033694072401  0.4500418642804350
  0.1662405036710324  0.0008367499617017  0.4501117391314701
  0.2222572712114580  0.0555422795076924  0.3808422972945459
  0.2779008883121935  0.1110419083512462  0.3116402336491987
  0.3890438397204900  0.0554105333274400  0.3807645114198108
  0.3893930321276777  0.2207209316109405  0.3803957122573529
  0.5007218604713820  0.1657006912272620  0.4499495425591625
  0.4445753966682698  0.1105648807806619  0.5184278334718160
  0.2776084175675925  0.1111533845695292  0.5186674555825233
  0.1108252624851468  0.2776437188506869  0.5186651492438412
  0.2769966796901551  0.2772232000193131  0.5190197947758253
  0.1101408123552056  0.4440151436495902  0.5188203256778389
  0.1612611231596698  0.4993552781082108  0.4499775175885419
  0.3335212042417525  0.3231395548353398  0.4501755813762885
  0.4999627913263048  0.5000677669663853  0.2427938402384180
  0.4445707831635877  0.4450973436148807  0.3115781081373061
  0.7222706455647568  0.0554174309017966  0.3808033778266232
  0.6667476764819937 -0.0001529867485920  0.4500708549652488
  0.8342251523705478  0.5001155678256953  0.4499725958454840
  0.8887217026966846  0.5557566745589920  0.3807758968459662
  0.4444113262263670  0.7777624509544517  0.1045184923179873
  0.3888354738231743  0.7222128016719007  0.1735425508092037
  0.3333994619009473  0.6666214541250798  0.2427599997578321
  0.1667040725691823  0.8332913906806846  0.2427141422563451
  0.1108559397711057  0.7778448448408982  0.3115088200924769
  0.0554572077879140  0.7224211920228991  0.3809548013027601
 -0.0003429137172634  0.6671982417806538  0.4498846104204164
  0.6111261491847523  0.6110946202380011  0.1045625005635395
  0.5554988224051339  0.5555654438332894  0.1735846230131055
  0.2222780069989155  0.8888289205789912  0.1734823997054976
  0.7778063779398389  0.4444084297709943  0.1044771805983649
  0.9444510915117150  0.4443874399151274  0.1045222644677417
  0.9444752018117467  0.6110274056135113  0.1045422704553882
  0.8888638025658558  0.5555677520674444  0.1734812382009218
  0.7222099246222730  0.7221484034633298  0.1734936283342515
  0.6666038302658955  0.6667339024637390  0.2426825190117921
  0.6111617505319085  0.6113098784137484  0.3114541850654251
  0.5568934221092904  0.5570440109442796  0.3798832402600720
  0.5244255990428165  0.4842669252210879  0.4495419214203474
  0.5571076164354006  0.3857640660518066  0.3796237751931879
  0.7221469483832251  0.3889543208883970  0.3809232853399889
  0.6752580418398652  0.3252771895747432  0.4500141155412553
  0.6121114700603172  0.2770872353588998  0.5190364823129509
  0.7782080812143500  0.1106008383955588  0.5184647381952706
  0.8343996174494603  0.1654928672979623  0.4499929941621232
  0.8888644359695367  0.2221940011498355  0.3808466712604939
  0.9444591882654206  0.2777732967913366  0.1044790296603866
  0.9444477205218688  0.1111545677982652  0.1045184313802981
  0.8888715842383069  0.2222384525801806  0.1734633782705200
  0.5000476158992991  0.8333160153266114  0.2426661469006338
  0.4446791589323316  0.7778017957779625  0.3114479143643185
  0.7777541620471957  0.7778284121718883  0.1045068766489964
  0.6111908582255613  0.9443936741726504  0.1045644992088441
  0.5555219606480168  0.8888475690387095  0.1734755289991130
  0.7778118120533422  0.1111245587122384  0.1045663385905397
  0.6110964453396642  0.1112189490913686  0.1045708938803066
  0.4444157428755405  0.2778507196290155  0.1045220902724028
  0.2778065006384237  0.4444536297641694  0.1045141785571361
  0.1111715573603676  0.6111123700320297  0.1045653186555087
  0.0556522279433103  0.5555332784632629  0.1735081590603649
  0.0557162217249641  0.7221237560593078  0.1735405107761140
  0.0000242559033562  0.6666662999354743  0.2426350763104276
  0.6111217489491363  0.2777850595167735  0.1045601538770271
  0.5554710643500967  0.2223576940895052  0.1735251890781699
  0.5001630633916372  0.1664249508755017  0.2425694096736237
  0.4445195935868987  0.1109195439273997  0.3115547395192494
  0.3888446761997280  0.3889390213281312  0.1735244353255386
  0.3332839976120350  0.3333651697298159  0.2426559764325365
  0.4444270025432995  0.4444795449892034  0.1046338660087460
  0.2777570087425494  0.6111216297056593  0.1046192337094166
  0.2223035031719604  0.5555339788860152  0.1735717575854907
  0.1111448827738006  0.7777382085568340  0.1045601837100964
  0.6666875793766709  0.9999458313135631  0.2426289206117782
  0.7777552685254536  0.4444647110025017  0.3116553241532642
  0.1111291361035822  0.4444633960614039  0.3116835122755059
  0.0555651372583440  0.3889090117415114  0.3808542066674570
 -0.0000294963727188  0.3332942592792631  0.4500586311267589
  0.1666371295631657  0.1666542888573395  0.4500797448074332
  0.1109107586200175  0.1114329654850988  0.5186723041158134
  0.5556851799812960  0.8887422603015773  0.3808049902295466
  0.2183813812600383  0.5577922443715855  0.3788144142384670
  0.2222519778231426  0.2222085635442015  0.3808565709178487
  0.3262608527415024  0.6896678498350297  0.4479341570134002
  0.3334533931933455  0.0007208797287539  0.4499654920363552
  0.4478789653267086  0.4389129464534515  0.5223264234486060
  0.1111183535828913  0.4444295047415862  0.1045207442144657
  0.1110793273708383  0.2777427514201732  0.1045173510069632
  0.0555789597262356  0.2221958774371387  0.1735161098715103
  0.9999898270276592  0.1666180048137766  0.2426718128673235
  0.1667010665463839  0.9999069368172748  0.2426679100204214
  0.2222166817909735  0.0555715073159106  0.1735081128569953
  0.2776759516460794  0.1111423248266074  0.1045380799133486
  0.3888252050639857  0.0555836594133692  0.1734824518928579
  0.3333699471639362  0.9999558007997490  0.2426655212543991
  0.1666616966434245  0.1666759265498330  0.2427085655933811
  0.1111212820437202  0.1110842987564428  0.3116414288536133
  0.0555468655198178  0.0555732132239513  0.3808562038848012
  0.9990281515627529  0.0007662783681696  0.4500180989488220
  0.2777442631507820  0.2777720445393622  0.1044836566542353
  0.2222147871933202  0.2222223502478884  0.1735140518452540
  0.0555872303958548  0.3888829903167809  0.1734742302562579
  0.9999951312229500  0.3333769625285890  0.2426732750700401
  0.4444089003609406  0.1111249528693688  0.1045496596220521
  0.1110982251189344  0.1111537176624414  0.1045177943519411
  0.0555755861296891  0.0555320802590948  0.1734701591194912
  0.9999984491636195  0.9999930146113625  0.2426767578955185
  0.9435537168860704  0.9451926655223629  0.5185218055135612
  0.3911999589708243  0.5661763547972790  0.4691733531971939
  0.3042354964120021  0.5697845130923370  0.4879767247250013
 
  0.00000000E+00  0.00000000E+00  0.00000000E+00
  0.00000000E+00  0.00000000E+00  0.00000000E+00
  0.00000000E+00  0.00000000E+00  0.00000000E+00
  0.00000000E+00  0.00000000E+00  0.00000000E+00
  0.00000000E+00  0.00000000E+00  0.00000000E+00
  0.00000000E+00  0.00000000E+00  0.00000000E+00
  0.00000000E+00  0.00000000E+00  0.00000000E+00
  0.00000000E+00  0.00000000E+00  0.00000000E+00
  0.00000000E+00  0.00000000E+00  0.00000000E+00
  0.00000000E+00  0.00000000E+00  0.00000000E+00
  0.00000000E+00  0.00000000E+00  0.00000000E+00
  0.00000000E+00  0.00000000E+00  0.00000000E+00
  0.00000000E+00  0.00000000E+00  0.00000000E+00
  0.00000000E+00  0.00000000E+00  0.00000000E+00
  0.00000000E+00  0.00000000E+00  0.00000000E+00
  0.00000000E+00  0.00000000E+00  0.00000000E+00
  0.00000000E+00  0.00000000E+00  0.00000000E+00
  0.00000000E+00  0.00000000E+00  0.00000000E+00
  0.00000000E+00  0.00000000E+00  0.00000000E+00
  0.00000000E+00  0.00000000E+00  0.00000000E+00
  0.00000000E+00  0.00000000E+00  0.00000000E+00
  0.00000000E+00  0.00000000E+00  0.00000000E+00
  0.00000000E+00  0.00000000E+00  0.00000000E+00
  0.00000000E+00  0.00000000E+00  0.00000000E+00
  0.00000000E+00  0.00000000E+00  0.00000000E+00
  0.00000000E+00  0.00000000E+00  0.00000000E+00
  0.00000000E+00  0.00000000E+00  0.00000000E+00
  0.00000000E+00  0.00000000E+00  0.00000000E+00
  0.00000000E+00  0.00000000E+00  0.00000000E+00
  0.00000000E+00  0.00000000E+00  0.00000000E+00
  0.00000000E+00  0.00000000E+00  0.00000000E+00
  0.00000000E+00  0.00000000E+00  0.00000000E+00
  0.00000000E+00  0.00000000E+00  0.00000000E+00
  0.00000000E+00  0.00000000E+00  0.00000000E+00
  0.00000000E+00  0.00000000E+00  0.00000000E+00
  0.00000000E+00  0.00000000E+00  0.00000000E+00
  0.00000000E+00  0.00000000E+00  0.00000000E+00
  0.00000000E+00  0.00000000E+00  0.00000000E+00
  0.00000000E+00  0.00000000E+00  0.00000000E+00
  0.00000000E+00  0.00000000E+00  0.00000000E+00
  0.00000000E+00  0.00000000E+00  0.00000000E+00
  0.00000000E+00  0.00000000E+00  0.00000000E+00
  0.00000000E+00  0.00000000E+00  0.00000000E+00
  0.00000000E+00  0.00000000E+00  0.00000000E+00
  0.00000000E+00  0.00000000E+00  0.00000000E+00
  0.00000000E+00  0.00000000E+00  0.00000000E+00
  0.00000000E+00  0.00000000E+00  0.00000000E+00
  0.00000000E+00  0.00000000E+00  0.00000000E+00
  0.00000000E+00  0.00000000E+00  0.00000000E+00
  0.00000000E+00  0.00000000E+00  0.00000000E+00
  0.00000000E+00  0.00000000E+00  0.00000000E+00
  0.00000000E+00  0.00000000E+00  0.00000000E+00
  0.00000000E+00  0.00000000E+00  0.00000000E+00
  0.00000000E+00  0.00000000E+00  0.00000000E+00
  0.00000000E+00  0.00000000E+00  0.00000000E+00
  0.00000000E+00  0.00000000E+00  0.00000000E+00
  0.00000000E+00  0.00000000E+00  0.00000000E+00
  0.00000000E+00  0.00000000E+00  0.00000000E+00
  0.00000000E+00  0.00000000E+00  0.00000000E+00
  0.00000000E+00  0.00000000E+00  0.00000000E+00
  0.00000000E+00  0.00000000E+00  0.00000000E+00
  0.00000000E+00  0.00000000E+00  0.00000000E+00
  0.00000000E+00  0.00000000E+00  0.00000000E+00
  0.00000000E+00  0.00000000E+00  0.00000000E+00
  0.00000000E+00  0.00000000E+00  0.00000000E+00
  0.00000000E+00  0.00000000E+00  0.00000000E+00
  0.00000000E+00  0.00000000E+00  0.00000000E+00
  0.00000000E+00  0.00000000E+00  0.00000000E+00
  0.00000000E+00  0.00000000E+00  0.00000000E+00
  0.00000000E+00  0.00000000E+00  0.00000000E+00
  0.00000000E+00  0.00000000E+00  0.00000000E+00
  0.00000000E+00  0.00000000E+00  0.00000000E+00
  0.00000000E+00  0.00000000E+00  0.00000000E+00
  0.00000000E+00  0.00000000E+00  0.00000000E+00
  0.00000000E+00  0.00000000E+00  0.00000000E+00
  0.00000000E+00  0.00000000E+00  0.00000000E+00
  0.00000000E+00  0.00000000E+00  0.00000000E+00
  0.00000000E+00  0.00000000E+00  0.00000000E+00
  0.00000000E+00  0.00000000E+00  0.00000000E+00
  0.00000000E+00  0.00000000E+00  0.00000000E+00
  0.00000000E+00  0.00000000E+00  0.00000000E+00
  0.00000000E+00  0.00000000E+00  0.00000000E+00
  0.00000000E+00  0.00000000E+00  0.00000000E+00
  0.00000000E+00  0.00000000E+00  0.00000000E+00
  0.00000000E+00  0.00000000E+00  0.00000000E+00
  0.00000000E+00  0.00000000E+00  0.00000000E+00
  0.00000000E+00  0.00000000E+00  0.00000000E+00
  0.00000000E+00  0.00000000E+00  0.00000000E+00
  0.00000000E+00  0.00000000E+00  0.00000000E+00
  0.00000000E+00  0.00000000E+00  0.00000000E+00
  0.00000000E+00  0.00000000E+00  0.00000000E+00
  0.00000000E+00  0.00000000E+00  0.00000000E+00
  0.00000000E+00  0.00000000E+00  0.00000000E+00
  0.00000000E+00  0.00000000E+00  0.00000000E+00
  0.00000000E+00  0.00000000E+00  0.00000000E+00
  0.00000000E+00  0.00000000E+00  0.00000000E+00
  0.00000000E+00  0.00000000E+00  0.00000000E+00
  0.00000000E+00  0.00000000E+00  0.00000000E+00
  0.00000000E+00  0.00000000E+00  0.00000000E+00
  0.00000000E+00  0.00000000E+00  0.00000000E+00
  0.00000000E+00  0.00000000E+00  0.00000000E+00
  0.00000000E+00  0.00000000E+00  0.00000000E+00
  0.00000000E+00  0.00000000E+00  0.00000000E+00
  0.00000000E+00  0.00000000E+00  0.00000000E+00
  0.00000000E+00  0.00000000E+00  0.00000000E+00
  0.00000000E+00  0.00000000E+00  0.00000000E+00
  0.00000000E+00  0.00000000E+00  0.00000000E+00
  0.00000000E+00  0.00000000E+00  0.00000000E+00
  0.00000000E+00  0.00000000E+00  0.00000000E+00
  0.00000000E+00  0.00000000E+00  0.00000000E+00
  0.00000000E+00  0.00000000E+00  0.00000000E+00
  0.00000000E+00  0.00000000E+00  0.00000000E+00
  0.00000000E+00  0.00000000E+00  0.00000000E+00
  0.00000000E+00  0.00000000E+00  0.00000000E+00
  0.00000000E+00  0.00000000E+00  0.00000000E+00
  0.00000000E+00  0.00000000E+00  0.00000000E+00
  0.00000000E+00  0.00000000E+00  0.00000000E+00
  0.00000000E+00  0.00000000E+00  0.00000000E+00
  0.00000000E+00  0.00000000E+00  0.00000000E+00
  0.00000000E+00  0.00000000E+00  0.00000000E+00
  0.00000000E+00  0.00000000E+00  0.00000000E+00
  0.00000000E+00  0.00000000E+00  0.00000000E+00
  0.00000000E+00  0.00000000E+00  0.00000000E+00
  0.00000000E+00  0.00000000E+00  0.00000000E+00
  0.00000000E+00  0.00000000E+00  0.00000000E+00
  0.00000000E+00  0.00000000E+00  0.00000000E+00
  0.00000000E+00  0.00000000E+00  0.00000000E+00
  0.00000000E+00  0.00000000E+00  0.00000000E+00
  0.00000000E+00  0.00000000E+00  0.00000000E+00
  0.00000000E+00  0.00000000E+00  0.00000000E+00
  0.00000000E+00  0.00000000E+00  0.00000000E+00
  0.00000000E+00  0.00000000E+00  0.00000000E+00
  0.00000000E+00  0.00000000E+00  0.00000000E+00
  0.00000000E+00  0.00000000E+00  0.00000000E+00
  0.00000000E+00  0.00000000E+00  0.00000000E+00
  0.00000000E+00  0.00000000E+00  0.00000000E+00
  0.00000000E+00  0.00000000E+00  0.00000000E+00
  0.00000000E+00  0.00000000E+00  0.00000000E+00
  0.00000000E+00  0.00000000E+00  0.00000000E+00
  0.00000000E+00  0.00000000E+00  0.00000000E+00
  0.00000000E+00  0.00000000E+00  0.00000000E+00
  0.00000000E+00  0.00000000E+00  0.00000000E+00
  0.00000000E+00  0.00000000E+00  0.00000000E+00
  0.00000000E+00  0.00000000E+00  0.00000000E+00
  0.00000000E+00  0.00000000E+00  0.00000000E+00
  0.00000000E+00  0.00000000E+00  0.00000000E+00
  0.00000000E+00  0.00000000E+00  0.00000000E+00
  0.00000000E+00  0.00000000E+00  0.00000000E+00
  0.00000000E+00  0.00000000E+00  0.00000000E+00
  0.00000000E+00  0.00000000E+00  0.00000000E+00
  0.00000000E+00  0.00000000E+00  0.00000000E+00
  0.00000000E+00  0.00000000E+00  0.00000000E+00
  0.00000000E+00  0.00000000E+00  0.00000000E+00
  0.00000000E+00  0.00000000E+00  0.00000000E+00
  0.00000000E+00  0.00000000E+00  0.00000000E+00
  0.00000000E+00  0.00000000E+00  0.00000000E+00
  0.00000000E+00  0.00000000E+00  0.00000000E+00
  0.00000000E+00  0.00000000E+00  0.00000000E+00
  0.00000000E+00  0.00000000E+00  0.00000000E+00
  0.00000000E+00  0.00000000E+00  0.00000000E+00
  0.00000000E+00  0.00000000E+00  0.00000000E+00
  0.00000000E+00  0.00000000E+00  0.00000000E+00
  0.00000000E+00  0.00000000E+00  0.00000000E+00
  0.00000000E+00  0.00000000E+00  0.00000000E+00
  0.00000000E+00  0.00000000E+00  0.00000000E+00
  0.00000000E+00  0.00000000E+00  0.00000000E+00
  0.00000000E+00  0.00000000E+00  0.00000000E+00
  0.00000000E+00  0.00000000E+00  0.00000000E+00
  0.00000000E+00  0.00000000E+00  0.00000000E+00
  0.00000000E+00  0.00000000E+00  0.00000000E+00
  0.00000000E+00  0.00000000E+00  0.00000000E+00
  0.00000000E+00  0.00000000E+00  0.00000000E+00
  0.00000000E+00  0.00000000E+00  0.00000000E+00
  0.00000000E+00  0.00000000E+00  0.00000000E+00
  0.00000000E+00  0.00000000E+00  0.00000000E+00
  0.00000000E+00  0.00000000E+00  0.00000000E+00
  0.00000000E+00  0.00000000E+00  0.00000000E+00
  0.00000000E+00  0.00000000E+00  0.00000000E+00
  0.00000000E+00  0.00000000E+00  0.00000000E+00
  0.00000000E+00  0.00000000E+00  0.00000000E+00
  0.00000000E+00  0.00000000E+00  0.00000000E+00
  0.00000000E+00  0.00000000E+00  0.00000000E+00
  0.00000000E+00  0.00000000E+00  0.00000000E+00
  0.00000000E+00  0.00000000E+00  0.00000000E+00
  0.00000000E+00  0.00000000E+00  0.00000000E+00
  0.00000000E+00  0.00000000E+00  0.00000000E+00
  0.00000000E+00  0.00000000E+00  0.00000000E+00
  0.00000000E+00  0.00000000E+00  0.00000000E+00
  0.00000000E+00  0.00000000E+00  0.00000000E+00
  0.00000000E+00  0.00000000E+00  0.00000000E+00
  0.00000000E+00  0.00000000E+00  0.00000000E+00
  0.00000000E+00  0.00000000E+00  0.00000000E+00
  0.00000000E+00  0.00000000E+00  0.00000000E+00
  0.00000000E+00  0.00000000E+00  0.00000000E+00
  0.00000000E+00  0.00000000E+00  0.00000000E+00
  0.00000000E+00  0.00000000E+00  0.00000000E+00
  0.00000000E+00  0.00000000E+00  0.00000000E+00
  0.00000000E+00  0.00000000E+00  0.00000000E+00
  0.00000000E+00  0.00000000E+00  0.00000000E+00
  0.00000000E+00  0.00000000E+00  0.00000000E+00
  0.00000000E+00  0.00000000E+00  0.00000000E+00
  0.00000000E+00  0.00000000E+00  0.00000000E+00
  0.00000000E+00  0.00000000E+00  0.00000000E+00
  0.00000000E+00  0.00000000E+00  0.00000000E+00
  0.00000000E+00  0.00000000E+00  0.00000000E+00
  0.00000000E+00  0.00000000E+00  0.00000000E+00
  0.00000000E+00  0.00000000E+00  0.00000000E+00
  0.00000000E+00  0.00000000E+00  0.00000000E+00
  0.00000000E+00  0.00000000E+00  0.00000000E+00
  0.00000000E+00  0.00000000E+00  0.00000000E+00
  0.00000000E+00  0.00000000E+00  0.00000000E+00
  0.00000000E+00  0.00000000E+00  0.00000000E+00
  0.00000000E+00  0.00000000E+00  0.00000000E+00
  0.00000000E+00  0.00000000E+00  0.00000000E+00
  0.00000000E+00  0.00000000E+00  0.00000000E+00
  0.00000000E+00  0.00000000E+00  0.00000000E+00
  0.00000000E+00  0.00000000E+00  0.00000000E+00
  0.00000000E+00  0.00000000E+00  0.00000000E+00
  0.00000000E+00  0.00000000E+00  0.00000000E+00
  0.00000000E+00  0.00000000E+00  0.00000000E+00
  0.00000000E+00  0.00000000E+00  0.00000000E+00
  0.00000000E+00  0.00000000E+00  0.00000000E+00
  0.00000000E+00  0.00000000E+00  0.00000000E+00
  0.00000000E+00  0.00000000E+00  0.00000000E+00
  0.00000000E+00  0.00000000E+00  0.00000000E+00
  0.00000000E+00  0.00000000E+00  0.00000000E+00
  0.00000000E+00  0.00000000E+00  0.00000000E+00
  0.00000000E+00  0.00000000E+00  0.00000000E+00
  0.00000000E+00  0.00000000E+00  0.00000000E+00
  0.00000000E+00  0.00000000E+00  0.00000000E+00
  0.00000000E+00  0.00000000E+00  0.00000000E+00
  0.00000000E+00  0.00000000E+00  0.00000000E+00
  0.00000000E+00  0.00000000E+00  0.00000000E+00
  0.00000000E+00  0.00000000E+00  0.00000000E+00
  0.00000000E+00  0.00000000E+00  0.00000000E+00
  0.00000000E+00  0.00000000E+00  0.00000000E+00
  0.00000000E+00  0.00000000E+00  0.00000000E+00
  0.00000000E+00  0.00000000E+00  0.00000000E+00
  0.00000000E+00  0.00000000E+00  0.00000000E+00
  0.00000000E+00  0.00000000E+00  0.00000000E+00
  0.00000000E+00  0.00000000E+00  0.00000000E+00
  0.00000000E+00  0.00000000E+00  0.00000000E+00
  0.00000000E+00  0.00000000E+00  0.00000000E+00
  0.00000000E+00  0.00000000E+00  0.00000000E+00
  0.00000000E+00  0.00000000E+00  0.00000000E+00
  0.00000000E+00  0.00000000E+00  0.00000000E+00
  0.00000000E+00  0.00000000E+00  0.00000000E+00
  0.00000000E+00  0.00000000E+00  0.00000000E+00
  0.00000000E+00  0.00000000E+00  0.00000000E+00
  0.00000000E+00  0.00000000E+00  0.00000000E+00
  0.00000000E+00  0.00000000E+00  0.00000000E+00
  0.00000000E+00  0.00000000E+00  0.00000000E+00
  0.00000000E+00  0.00000000E+00  0.00000000E+00
  0.00000000E+00  0.00000000E+00  0.00000000E+00
