New structure                           
   1.00000000000000     
    14.5000000000000000    0.0000000000000000    0.0000000000000000
     0.0000000000000000   14.5000000000000000    0.0000000000000000
     0.0000000000000000    0.0000000000000000   14.5000000000000000
   N 
     4
Direct
  0.0000000000000000  0.0000000000000000  0.0000000000000000
  0.0758620689655203  0.0000000000000000  0.0000000000000000
  0.1379310344827616  0.0000000000000000  0.0000000000000000
  0.2137931034482747  0.0000000000000000  0.0000000000000000
 
  0.00000000E+00  0.00000000E+00  0.00000000E+00
  0.00000000E+00  0.00000000E+00  0.00000000E+00
  0.00000000E+00  0.00000000E+00  0.00000000E+00
  0.00000000E+00  0.00000000E+00  0.00000000E+00
