New structure                           
   1.00000000000000     
     3.0377817386439681    0.0000000000000000    0.0000000000000000
    -1.5188908693219834    2.6307961568181364    0.0000000000000000
     0.0000000000000000    0.0000000000000000    4.9132207170630160
   Al
     2
Direct
  0.3333333333333357  0.6666666666666643  0.0000000000000000
  0.6666666666666643  0.3333333333333357  0.5000000000000000
 
  0.00000000E+00  0.00000000E+00  0.00000000E+00
  0.00000000E+00  0.00000000E+00  0.00000000E+00
