New structure                           
   1.00000000000000     
    14.5000000000000000    0.0000000000000000    0.0000000000000000
     0.0000000000000000   14.5000000000000000    0.0000000000000000
     0.0000000000000000    0.0000000000000000   14.5000000000000000
   N 
    10
Direct
  0.7200468113997630  0.3452349042527345  0.1895707280148999
  0.6578405487753421  0.3844518455888790  0.2033454201863659
  0.9610052086759703  0.9717285468677391  0.1663884203198137
  0.0042876791854712  0.9751360579128666  0.0916607468478573
  0.4444782686524499  0.7792167772760852  0.7807408374539300
  0.5142487707706652  0.7902242003189172  0.7443114902326026
  0.2140541405837708  0.1762291556691015  0.2416614087420602
  0.2354120068386899  0.1240919214353816  0.3120540892009405
  0.1792729081444880  0.4150717427681024  0.1518399293922156
  0.1107329673182347  0.4730976065308825  0.1529096882300122
 
 -0.12791970E-01 -0.31441417E-01 -0.23791399E-01
 -0.72895767E-02 -0.60389672E-02 -0.23821881E-01
 -0.19091279E-01 -0.49461030E-02  0.38572695E-01
 -0.55262630E-02  0.34113193E-02 -0.45752855E-02
  0.41945609E-01 -0.28003957E-01 -0.19185812E-01
 -0.14338577E-01  0.51125382E-02  0.72709188E-02
  0.79131222E-02  0.91459361E-02  0.24804096E-01
  0.10678118E-01  0.38949042E-01  0.11783906E-01
  0.89985238E-02  0.18601449E-02 -0.50838453E-02
 -0.10497708E-01  0.11951463E-01 -0.59733921E-02
 
           1
   1.00000000000000     
  0.10000000E+01  0.00000000E+00  0.00000000E+00  0.00000000E+00
  0.71916461E+00  0.34306653E+00  0.18792994E+00
  0.65733782E+00  0.38403537E+00  0.20170253E+00
  0.95968857E+00  0.97138744E+00  0.16904861E+00
  0.39065576E-02  0.97537132E+00  0.91345210E-01
  0.44737107E+00  0.77728547E+00  0.77941768E+00
  0.51325990E+00  0.79057679E+00  0.74481293E+00
  0.21459987E+00  0.17685991E+00  0.24337204E+00
  0.23614843E+00  0.12677806E+00  0.31286677E+00
  0.17989350E+00  0.41520003E+00  0.15148932E+00
  0.11000899E+00  0.47392185E+00  0.15249773E+00
 -0.10039321E-02 -0.20909024E-02 -0.16132977E-02
 -0.38045564E-03 -0.49380197E-03 -0.16692661E-02
 -0.14502227E-02 -0.35134517E-03  0.28895158E-02
 -0.24744684E-03  0.24614514E-03 -0.54546265E-03
  0.28136480E-02 -0.19447578E-02 -0.12819465E-02
 -0.91022663E-03  0.36510187E-03  0.45995082E-03
  0.47152836E-03  0.81053033E-03  0.14689930E-02
  0.81003036E-03  0.25066163E-02  0.10547832E-02
  0.85477485E-03 -0.70864170E-04 -0.35461784E-03
 -0.95769769E-03  0.10232779E-02 -0.40865202E-03
  0.00000000E+00  0.00000000E+00  0.00000000E+00
  0.00000000E+00  0.00000000E+00  0.00000000E+00
  0.00000000E+00  0.00000000E+00  0.00000000E+00
  0.00000000E+00  0.00000000E+00  0.00000000E+00
  0.00000000E+00  0.00000000E+00  0.00000000E+00
  0.00000000E+00  0.00000000E+00  0.00000000E+00
  0.00000000E+00  0.00000000E+00  0.00000000E+00
  0.00000000E+00  0.00000000E+00  0.00000000E+00
  0.00000000E+00  0.00000000E+00  0.00000000E+00
  0.00000000E+00  0.00000000E+00  0.00000000E+00
