New structure                           
   1.00000000000000     
    14.5000000000000000    0.0000000000000000    0.0000000000000000
     0.0000000000000000   14.5000000000000000    0.0000000000000000
     0.0000000000000000    0.0000000000000000   14.5000000000000000
   N 
     4
Direct
  0.0000000000000000  0.0000000000000000  0.0000000000000000
  0.0758620689655203  0.0000000000000000  0.0000000000000000
  0.0344827586206904  0.9655172413793096  0.1034482758620712
  0.0344827586206904  0.0344827586206904  0.1034482758620712
 
  0.00000000E+00  0.00000000E+00  0.00000000E+00
  0.00000000E+00  0.00000000E+00  0.00000000E+00
  0.00000000E+00  0.00000000E+00  0.00000000E+00
  0.00000000E+00  0.00000000E+00  0.00000000E+00
