New structure                           
   1.00000000000000     
     0.0000000000000000  -15.1462217587961998    0.0000000000000000
     0.0000000000000000   -7.5731108793980804  -13.1170128144700993
    29.0000000000000000    0.0000000000000000    0.0000000000000000
   Ni   N 
   252     2
Direct
  0.4468837669210827  0.6113062108357916  0.5217296422072554
  0.6165641814277486  0.4417017246907274  0.5181914265854433
  0.7792632114666427  0.2766071064415360  0.5185660996685512
  0.9444997608721853  0.1112512181821733  0.5185368883902203
  0.9448070131329952  0.2776050305697596  0.5187484366877296
  0.9445191069341714  0.4442679013658956  0.5185295286190310
  0.7783534536912201  0.6112937174930902  0.5185047753850179
  0.6113639669029094  0.7781232104161774  0.5185687622107321
  0.4446911623498482  0.9449783106438912  0.5185007172942507
  0.6112349792376623  0.9443808230674642  0.5185480299073658
  0.7776645432366913  0.9444008799705256  0.5185941183260552
  0.9433798081442166  0.7783933921503339  0.5185909943790337
  0.9433520860056880  0.6112544455634910  0.5185003707889795
  0.8330445004667573  0.6670573809845977  0.4499383907613211
  0.6666479023637664  0.8333713048210282  0.4500256316217696
  0.7222571245271181  0.8888595381964833  0.3808517248939523
  0.8891266334470210  0.7221975353498682  0.3808125963401077
  0.9443445688805494  0.7778180082334746  0.3115399969757278
  0.7777807706481376  0.9444750947194932  0.3116434120536307
  0.9445337177784067  0.9443643288654849  0.3116400989060925
  0.8890732763886411  0.8887176244311794  0.3807923472062916
  0.8331954389900887  0.8333762985907065  0.4500039184397333
  0.7776734035531545  0.7779146076754744  0.5185900143070317
  0.7792007561578210  0.4441684223615213  0.5185685837665721
  0.6668631233351591  0.5000885867185960  0.4500830098413471
  0.8335971071856841  0.3332273688522588  0.4500760451515070
  0.8888398711326243  0.3889460130744679  0.3808452208112887
  0.7222049129712996  0.5555141555837974  0.3808523054227756
  0.7777662060710536  0.6110866046216785  0.3116300860536975
  0.6111633777478703  0.7778201807106819  0.3115352328462730
  0.6666434630211302  0.8333867599556937  0.2426515112261248
  0.8333221058997623  0.6666796079618051  0.2426424807107281
  0.8889341986878686  0.7222265460244260  0.1734550805035878
  0.7222980996038281  0.8888535877725913  0.1735829665105316
  0.7777502461803777  0.9443843687721907  0.1045361953745978
  0.9445118166718676  0.7777559313493977  0.1044682976941607
  0.9444983475503143  0.9444146547804595  0.1045656164340227
  0.8889231109973253  0.8888508093422625  0.1734581251344489
  0.8333623782985868  0.8333080892729557  0.2426965662630878
  0.7777856804935313  0.7777331685611107  0.3116535275828952
  0.7220439780664917  0.7221967797425399  0.3808156329639219
  0.6664772781893239  0.6667960162755667  0.4499228154830316
  0.5554695599261599  0.7221267607795063  0.3808665357666731
  0.5001672169084219  0.8332349095806392  0.4499286352269156
  0.3334080556180840  0.8337709138866649  0.4499668741795360
  0.2763841168861669  0.7820870301918691  0.5178994446843174
  0.1099750699016069  0.9460363384570033  0.5185458342589390
  0.2775119488494686  0.9457953294594640  0.5186071214691228
  0.4447024744983903  0.7800150529090568  0.5185334925932840
  0.4994264009832907  0.6663406963966150  0.4508628421552652
  0.6138450193307027  0.6113968849966691  0.5185375843335081
  0.6110289988588208  0.9444919869113122  0.3116743207418805
  0.4444945495353286  0.9444005954483948  0.3116397314968300
  0.3888379094724743  0.8888582939419952  0.3808345238870631
  0.3891253842528688  0.7223433224516613  0.3809337214491243
  0.2224582393553807  0.7221288980261840  0.3810075976357101
  0.0556695012036360  0.8887703092784900  0.3808477318326302
 -0.0005827586185980  0.8336053506915815  0.4498207649431442
  0.1655263800349319  0.6674751460365799  0.4495742151326487
  0.2662787651708357  0.6164029986779475  0.5192946743425891
  0.1059119001023987  0.6117994534310257  0.5181421897461559
  0.2760725670048256  0.4426704361373824  0.5186760393101993
  0.4447211761194167  0.2750067443442779  0.5184451589672942
  0.6114155851244932  0.1105017058645159  0.5185578601717168
  0.6665533460833588  0.1666486833982973  0.4498960555472560
  0.8330518639839545  0.9999060864959728  0.4499545518168467
  0.8887465473818196  0.0555255836248020  0.3808013097840071
  0.7222227206699914  0.2222373965671406  0.3808467131033303
  0.7777809961649890  0.2778118348641591  0.3116649851382542
  0.6109552840228507  0.4445433246727954  0.3118343825851858
  0.6666003743416786  0.4999940223221728  0.2427684216736271
  0.4999307157487803  0.6665879706412525  0.2428447492895532
  0.5555204191386979  0.7221561664529541  0.1735298901756636
  0.3887671191276566  0.8888352368781574  0.1734782949053204
  0.3333222991822609  0.8332835626632229  0.2427402741710523
  0.2777685061281632  0.7777063794652442  0.3117746247068023
  0.1110927566322708  0.9444802400385920  0.3116699026419646
  0.2777377908450030  0.9444585842987013  0.3116612962292332
  0.2222043585274358  0.8888844393322569  0.3808920412944279
  0.1664007080036430  0.8335543679498154  0.4500712581153850
  0.1059913920502338  0.7827206944149943  0.5182732280308668
  0.9445233732433034  0.6111034401891507  0.3116393892743406
  0.9444488941619177  0.4445122453630513  0.3116507307362960
  0.9444603192057719  0.2777743946108522  0.3116547095400013
  0.9444509375894304  0.1110429621729330  0.3116506167722072
  0.8333290475103123  0.1666720319093013  0.2426626877190229
  0.6665811731905474  0.1668254678400945  0.2427205818275776
  0.4999357004757519  0.3334810566916882  0.2428479577317832
  0.5554888455451029  0.3889791980621458  0.1736036991699773
  0.3888489358676145  0.5555850376490721  0.1736326660852614
  0.4444363591511746  0.6110908693602345  0.1046406662035037
  0.6110963240136591  0.4444550004430237  0.1045658303798875
  0.7777906035227998  0.2777835968920211  0.1044787013498204
  0.7222055895903147  0.2222960561848762  0.1735400169529978
  0.7222065128873753  0.0556415009891124  0.1735002175873851
  0.8889068694520699  0.0555910346466089  0.1734672621805575
  0.8333574423460113  0.9999745780129494  0.2426397722862339
  0.7777557828973761  0.1111303113811056  0.3116160604533673
  0.6111236413685415  0.1110644944809945  0.3115527259983382
  0.5556033896645810  0.0557601578458424  0.3808186780109463
  0.5003596335155894  0.9998052836511727  0.4499656025868666
  0.3336308708411276  0.1663729328140097  0.4499590232679821
  0.1665211018231653  0.3332618880056200  0.4500553348062855
  0.9996672503465791  0.5003018962564503  0.4499577231699560
  0.0557084186999846  0.5555404657206851  0.3808663607474345
  0.2222320533912159  0.3888768890853830  0.3809163317400193
  0.2778245225596586  0.4445150985221641  0.3117978219258917
  0.1111993905108226  0.6110332476544204  0.3117731226578445
  0.1668228933406773  0.6665894501691778  0.2428664459746087
  0.0001709758097617  0.8332558366990216  0.2426847975392520
  0.0556496984248875  0.8888426630986125  0.1735284096210337
  0.2223030011334548  0.7221568405277543  0.1736106070763088
  0.2777807219345820  0.7777680809561276  0.1045197854026780
  0.1111368733698317  0.9444434764496521  0.1045350443797021
  0.2777488923024760  0.9444587645691314  0.1044726217164372
  0.4444472341629513  0.9443973740922157  0.1045630854460739
  0.6110837163107071  0.7777444677938866  0.1045520317862616
  0.7777206417766743  0.6110594201009094  0.1045660937986681
  0.7221893050273757  0.5555008656393109  0.1735490340088045
  0.8333399523058233  0.5000024995749943  0.2426618672691679
  0.8888397205206915  0.3888485148792419  0.1734519977422228
  0.8333166529282495  0.3333382338952245  0.2426865328472219
  0.7222263299861107  0.3888915387288353  0.1734851560135050
  0.6666047701253424  0.3334209879158527  0.2427576114120963
  0.6110320315024986  0.2779662840615849  0.3117826511482841
  0.5555118994144140  0.2223383096387992  0.3808277919517505
  0.4443682153180780  0.2779721085709238  0.3117717210934049
  0.3889849985664940  0.3888081001534249  0.3811341347213201
  0.4999885126936683  0.3331604624703348  0.4502926999039607
  0.3338324904517072  0.4997690614337565  0.4507416939514290
  0.3889519578450201  0.5555552296725756  0.3814836897168169
  0.4443584260734625  0.6109776413731960  0.3120297328397771
  0.2779763846206746  0.6110140971796120  0.3119727041511858
  0.3334112813904397  0.5000009203832105  0.2428668073355991
  0.1667161529540297  0.4999897377979816  0.2427697079816485
  0.0000168629765786  0.5000190287179459  0.2426982462354663
  0.1666589518560751  0.3333778534530394  0.2426666532798042
  0.2222794273740674  0.3889041653649107  0.1734851866635430
  0.3888099233271687  0.2223469473849334  0.1734791064454843
  0.5555292900364713  0.0556238878281315  0.1734855889078495
  0.5000656089518475  0.9999679517066768  0.2426534882618964
  0.3333805971962118  0.1666872258561399  0.2426584757947399
  0.2777268613788457  0.2778128567918406  0.3116642997185977
  0.1110686900763400  0.2778129596619708  0.3116498365100267
  0.0555358645345960  0.2222260344138112  0.3808845953062024
  0.9999687975292364  0.1666382370817424  0.4500936962287366
  0.1665478182454649  0.0002033042786521  0.4500613661081728
  0.2222593719494578  0.0555213126944985  0.3808452013567424
  0.2778600868782334  0.1110668992519200  0.3116256973080584
  0.3889711351749902  0.0555256516359177  0.3807920431945660
  0.3888286104832396  0.2223231466651846  0.3808319709437394
  0.5001615218968173  0.1665365002979290  0.4498904452859391
  0.4446563567032309  0.1104398929064626  0.5184971109651019
  0.2776591856884747  0.1111818680547972  0.5185321840519045
  0.1109624451766236  0.2775825329685620  0.5186822611771005
  0.2773922098694135  0.2768668348259254  0.5185763423695937
  0.1098985693062225  0.4440420023553661  0.5184994712632939
  0.1666801383042205  0.4999422721085884  0.4501366032383272
  0.3331840764618426  0.3333087870770242  0.4501998073228962
  0.4999314608025908  0.5000396350376614  0.2429623491100983
  0.4443496988657014  0.4446694139238285  0.3120320185293262
  0.7220688010316554  0.0557059263355868  0.3808105882277054
  0.6666752404327136 -0.0000528324168266  0.4500322382622049
  0.8333688696409146  0.5002610873493339  0.4499620435772712
  0.8887528982877393  0.5557243312112535  0.3808049476308235
  0.4443988565544663  0.7777717055441600  0.1045132858938815
  0.3888460594720993  0.7221940484146191  0.1735474143236939
  0.3334038447592207  0.6665966276576242  0.2428922157864586
  0.1667299932164658  0.8332772390295664  0.2427668971587287
  0.1111963361264686  0.7777721864277274  0.3117632798848533
  0.0554423608254396  0.7222792329026515  0.3806575356638460
 -0.0004474898906390  0.6669158110876923  0.4498531382886491
  0.6111038283498146  0.6111070197462350  0.1045926564393163
  0.5554939263004965  0.5555175097182650  0.1736029888286383
  0.2222687381412200  0.8888313742817979  0.1734876799805765
  0.7777842522284947  0.4444267875597902  0.1044762140058377
  0.9444742273560194  0.4443952927453928  0.1045253825639839
  0.9444959303667742  0.6110857213190507  0.1045603730779144
  0.8889149546148656  0.5555011112167560  0.1734656573750038
  0.7222164042795673  0.7221485661406551  0.1734972209208730
  0.6665799590272931  0.6666014790993944  0.2427098550180246
  0.6110116382578047  0.6110409751638977  0.3118017851599323
  0.5553817539550614  0.5556749583101164  0.3812210165668682
  0.5000193758618963  0.4999356919221610  0.4506844423557784
  0.5555299611325684  0.3888050996278253  0.3811317326076793
  0.7221488827541361  0.3889395872341723  0.3809010897760268
  0.6669476406699680  0.3330005181030579  0.4500629265668444
  0.6142973186984756  0.2745370929072571  0.5185976287729150
  0.7783663996226652  0.1103554773994838  0.5185039788089983
  0.8333511466246496  0.1663824092364708  0.4499668888572915
  0.8888400110183895  0.2222089514658559  0.3808527776314988
  0.9444740638862928  0.2777636111159975  0.1044830719385639
  0.9444861609157832  0.1111170948662195  0.1045302316127454
  0.8888542800145719  0.2223048370722510  0.1734516833735235
  0.4999121816726512  0.8332725803999012  0.2427087006928604
  0.4444226722072016  0.7777305091191902  0.3117179176238550
  0.7777376408959823  0.7778623354477147  0.1045274645056511
  0.6111569726267577  0.9444038097867061  0.1045761043676464
  0.5555184241579136  0.8888587592876477  0.1735045783319988
  0.7777151429551673  0.1111954732092481  0.1045649883704348
  0.6110927074400830  0.1111766808262494  0.1045479527425140
  0.4443954083037287  0.2778508029170664  0.1045214126766176
  0.2777843978268019  0.4444474734346112  0.1045130965084568
  0.1111792831470283  0.6110940043192000  0.1045874062010305
  0.0556497398275814  0.5555130038050047  0.1735285982253886
  0.0556330962790388  0.7221723177605845  0.1735451715205800
  0.0001576328212069  0.6665915009905760  0.2426964210932422
  0.6110957596553823  0.2778016359790901  0.1045979020360252
  0.5555241318994557  0.2222989632381856  0.1735404628523406
  0.4998780756760725  0.1668461633047358  0.2427134461309003
  0.4444984209160049  0.1110890389376620  0.3116264241211681
  0.3888197738690459  0.3889721703561461  0.1735490606922562
  0.3333220507486888  0.3333959683707857  0.2427500351057187
  0.4444391403810740  0.4444680174675608  0.1046309758922499
  0.2777385212007621  0.6111297777935227  0.1046284951501755
  0.2222994522512054  0.5555521308067173  0.1736074713827662
  0.1111890394682091  0.7777205972521175  0.1045838318463660
  0.6666046786803523  0.0000371120965635  0.2426524306769233
  0.7777980601888773  0.4443959078155661  0.3116638969662455
  0.1110894337945868  0.4444224538943287  0.3116796064627652
  0.0555595738265026  0.3888556885360090  0.3808555099325703
  0.9999757663580410  0.3333760704190484  0.4500925527978080
  0.1667412529839592  0.1666408510207991  0.4500711972716313
  0.1109680886801550  0.1114516715447798  0.5186628111454501
  0.5555955133581606  0.8886274555832688  0.3808222455449607
  0.2224690017860712  0.5553852777304619  0.3810503186057955
  0.2222581848926008  0.2221997889316837  0.3808459139962117
  0.3339862380969782  0.6669667284104466  0.4504174103971265
  0.3336455794494554  0.0000534276979272  0.4499786056334845
  0.4507608149923775  0.4388609758522646  0.5198163637419591
  0.1111285554836053  0.4444143191281603  0.1045301559913000
  0.1111031563652713  0.2777379256774688  0.1045284888289918
  0.0555825580871533  0.2222071596429126  0.1735101430050277
  0.9999718105364946  0.1666471620442352  0.2426669441868560
  0.1666601449352560  0.9999704972185756  0.2426627588497814
  0.2222047943820092  0.0555331731429479  0.1735071411499089
  0.2776752203153866  0.1111552923358641  0.1045415938222042
  0.3887778589856792  0.0556161058588171  0.1734686788347924
  0.3334050269666136  0.9999415503162180  0.2426596036429220
  0.1666840868541309  0.1666645768348926  0.2426986169434696
  0.1110790410851058  0.1111192278078056  0.3116508945268442
  0.0555757425423640  0.0555817163525204  0.3808550229726796
  0.9996588728680231  0.0000619296766445  0.4499686793040515
  0.2777563282869939  0.2777891180265218  0.1044749947053660
  0.2221928361241911  0.2222595065563074  0.1735034904943653
  0.0556064727996947  0.3888394375795508  0.1734781129601965
  0.9999742047918951  0.3333854307931119  0.2426694863057766
  0.4444274082640763  0.1111545186162402  0.1045493944243092
  0.1111246998079022  0.1111562014773763  0.1045207347570316
  0.0556155942962678  0.0555619186666436  0.1734771414124901
  0.0000124361284358  0.9999715454384143  0.2426965307856617
  0.9432770192733712  0.9454870439071285  0.5185179118543315
  0.3973242972854579  0.5523465176078299  0.5618165915837664
  0.3194239214062731  0.5656167403565004  0.5805989723359172
 
  0.00000000E+00  0.00000000E+00  0.00000000E+00
  0.00000000E+00  0.00000000E+00  0.00000000E+00
  0.00000000E+00  0.00000000E+00  0.00000000E+00
  0.00000000E+00  0.00000000E+00  0.00000000E+00
  0.00000000E+00  0.00000000E+00  0.00000000E+00
  0.00000000E+00  0.00000000E+00  0.00000000E+00
  0.00000000E+00  0.00000000E+00  0.00000000E+00
  0.00000000E+00  0.00000000E+00  0.00000000E+00
  0.00000000E+00  0.00000000E+00  0.00000000E+00
  0.00000000E+00  0.00000000E+00  0.00000000E+00
  0.00000000E+00  0.00000000E+00  0.00000000E+00
  0.00000000E+00  0.00000000E+00  0.00000000E+00
  0.00000000E+00  0.00000000E+00  0.00000000E+00
  0.00000000E+00  0.00000000E+00  0.00000000E+00
  0.00000000E+00  0.00000000E+00  0.00000000E+00
  0.00000000E+00  0.00000000E+00  0.00000000E+00
  0.00000000E+00  0.00000000E+00  0.00000000E+00
  0.00000000E+00  0.00000000E+00  0.00000000E+00
  0.00000000E+00  0.00000000E+00  0.00000000E+00
  0.00000000E+00  0.00000000E+00  0.00000000E+00
  0.00000000E+00  0.00000000E+00  0.00000000E+00
  0.00000000E+00  0.00000000E+00  0.00000000E+00
  0.00000000E+00  0.00000000E+00  0.00000000E+00
  0.00000000E+00  0.00000000E+00  0.00000000E+00
  0.00000000E+00  0.00000000E+00  0.00000000E+00
  0.00000000E+00  0.00000000E+00  0.00000000E+00
  0.00000000E+00  0.00000000E+00  0.00000000E+00
  0.00000000E+00  0.00000000E+00  0.00000000E+00
  0.00000000E+00  0.00000000E+00  0.00000000E+00
  0.00000000E+00  0.00000000E+00  0.00000000E+00
  0.00000000E+00  0.00000000E+00  0.00000000E+00
  0.00000000E+00  0.00000000E+00  0.00000000E+00
  0.00000000E+00  0.00000000E+00  0.00000000E+00
  0.00000000E+00  0.00000000E+00  0.00000000E+00
  0.00000000E+00  0.00000000E+00  0.00000000E+00
  0.00000000E+00  0.00000000E+00  0.00000000E+00
  0.00000000E+00  0.00000000E+00  0.00000000E+00
  0.00000000E+00  0.00000000E+00  0.00000000E+00
  0.00000000E+00  0.00000000E+00  0.00000000E+00
  0.00000000E+00  0.00000000E+00  0.00000000E+00
  0.00000000E+00  0.00000000E+00  0.00000000E+00
  0.00000000E+00  0.00000000E+00  0.00000000E+00
  0.00000000E+00  0.00000000E+00  0.00000000E+00
  0.00000000E+00  0.00000000E+00  0.00000000E+00
  0.00000000E+00  0.00000000E+00  0.00000000E+00
  0.00000000E+00  0.00000000E+00  0.00000000E+00
  0.00000000E+00  0.00000000E+00  0.00000000E+00
  0.00000000E+00  0.00000000E+00  0.00000000E+00
  0.00000000E+00  0.00000000E+00  0.00000000E+00
  0.00000000E+00  0.00000000E+00  0.00000000E+00
  0.00000000E+00  0.00000000E+00  0.00000000E+00
  0.00000000E+00  0.00000000E+00  0.00000000E+00
  0.00000000E+00  0.00000000E+00  0.00000000E+00
  0.00000000E+00  0.00000000E+00  0.00000000E+00
  0.00000000E+00  0.00000000E+00  0.00000000E+00
  0.00000000E+00  0.00000000E+00  0.00000000E+00
  0.00000000E+00  0.00000000E+00  0.00000000E+00
  0.00000000E+00  0.00000000E+00  0.00000000E+00
  0.00000000E+00  0.00000000E+00  0.00000000E+00
  0.00000000E+00  0.00000000E+00  0.00000000E+00
  0.00000000E+00  0.00000000E+00  0.00000000E+00
  0.00000000E+00  0.00000000E+00  0.00000000E+00
  0.00000000E+00  0.00000000E+00  0.00000000E+00
  0.00000000E+00  0.00000000E+00  0.00000000E+00
  0.00000000E+00  0.00000000E+00  0.00000000E+00
  0.00000000E+00  0.00000000E+00  0.00000000E+00
  0.00000000E+00  0.00000000E+00  0.00000000E+00
  0.00000000E+00  0.00000000E+00  0.00000000E+00
  0.00000000E+00  0.00000000E+00  0.00000000E+00
  0.00000000E+00  0.00000000E+00  0.00000000E+00
  0.00000000E+00  0.00000000E+00  0.00000000E+00
  0.00000000E+00  0.00000000E+00  0.00000000E+00
  0.00000000E+00  0.00000000E+00  0.00000000E+00
  0.00000000E+00  0.00000000E+00  0.00000000E+00
  0.00000000E+00  0.00000000E+00  0.00000000E+00
  0.00000000E+00  0.00000000E+00  0.00000000E+00
  0.00000000E+00  0.00000000E+00  0.00000000E+00
  0.00000000E+00  0.00000000E+00  0.00000000E+00
  0.00000000E+00  0.00000000E+00  0.00000000E+00
  0.00000000E+00  0.00000000E+00  0.00000000E+00
  0.00000000E+00  0.00000000E+00  0.00000000E+00
  0.00000000E+00  0.00000000E+00  0.00000000E+00
  0.00000000E+00  0.00000000E+00  0.00000000E+00
  0.00000000E+00  0.00000000E+00  0.00000000E+00
  0.00000000E+00  0.00000000E+00  0.00000000E+00
  0.00000000E+00  0.00000000E+00  0.00000000E+00
  0.00000000E+00  0.00000000E+00  0.00000000E+00
  0.00000000E+00  0.00000000E+00  0.00000000E+00
  0.00000000E+00  0.00000000E+00  0.00000000E+00
  0.00000000E+00  0.00000000E+00  0.00000000E+00
  0.00000000E+00  0.00000000E+00  0.00000000E+00
  0.00000000E+00  0.00000000E+00  0.00000000E+00
  0.00000000E+00  0.00000000E+00  0.00000000E+00
  0.00000000E+00  0.00000000E+00  0.00000000E+00
  0.00000000E+00  0.00000000E+00  0.00000000E+00
  0.00000000E+00  0.00000000E+00  0.00000000E+00
  0.00000000E+00  0.00000000E+00  0.00000000E+00
  0.00000000E+00  0.00000000E+00  0.00000000E+00
  0.00000000E+00  0.00000000E+00  0.00000000E+00
  0.00000000E+00  0.00000000E+00  0.00000000E+00
  0.00000000E+00  0.00000000E+00  0.00000000E+00
  0.00000000E+00  0.00000000E+00  0.00000000E+00
  0.00000000E+00  0.00000000E+00  0.00000000E+00
  0.00000000E+00  0.00000000E+00  0.00000000E+00
  0.00000000E+00  0.00000000E+00  0.00000000E+00
  0.00000000E+00  0.00000000E+00  0.00000000E+00
  0.00000000E+00  0.00000000E+00  0.00000000E+00
  0.00000000E+00  0.00000000E+00  0.00000000E+00
  0.00000000E+00  0.00000000E+00  0.00000000E+00
  0.00000000E+00  0.00000000E+00  0.00000000E+00
  0.00000000E+00  0.00000000E+00  0.00000000E+00
  0.00000000E+00  0.00000000E+00  0.00000000E+00
  0.00000000E+00  0.00000000E+00  0.00000000E+00
  0.00000000E+00  0.00000000E+00  0.00000000E+00
  0.00000000E+00  0.00000000E+00  0.00000000E+00
  0.00000000E+00  0.00000000E+00  0.00000000E+00
  0.00000000E+00  0.00000000E+00  0.00000000E+00
  0.00000000E+00  0.00000000E+00  0.00000000E+00
  0.00000000E+00  0.00000000E+00  0.00000000E+00
  0.00000000E+00  0.00000000E+00  0.00000000E+00
  0.00000000E+00  0.00000000E+00  0.00000000E+00
  0.00000000E+00  0.00000000E+00  0.00000000E+00
  0.00000000E+00  0.00000000E+00  0.00000000E+00
  0.00000000E+00  0.00000000E+00  0.00000000E+00
  0.00000000E+00  0.00000000E+00  0.00000000E+00
  0.00000000E+00  0.00000000E+00  0.00000000E+00
  0.00000000E+00  0.00000000E+00  0.00000000E+00
  0.00000000E+00  0.00000000E+00  0.00000000E+00
  0.00000000E+00  0.00000000E+00  0.00000000E+00
  0.00000000E+00  0.00000000E+00  0.00000000E+00
  0.00000000E+00  0.00000000E+00  0.00000000E+00
  0.00000000E+00  0.00000000E+00  0.00000000E+00
  0.00000000E+00  0.00000000E+00  0.00000000E+00
  0.00000000E+00  0.00000000E+00  0.00000000E+00
  0.00000000E+00  0.00000000E+00  0.00000000E+00
  0.00000000E+00  0.00000000E+00  0.00000000E+00
  0.00000000E+00  0.00000000E+00  0.00000000E+00
  0.00000000E+00  0.00000000E+00  0.00000000E+00
  0.00000000E+00  0.00000000E+00  0.00000000E+00
  0.00000000E+00  0.00000000E+00  0.00000000E+00
  0.00000000E+00  0.00000000E+00  0.00000000E+00
  0.00000000E+00  0.00000000E+00  0.00000000E+00
  0.00000000E+00  0.00000000E+00  0.00000000E+00
  0.00000000E+00  0.00000000E+00  0.00000000E+00
  0.00000000E+00  0.00000000E+00  0.00000000E+00
  0.00000000E+00  0.00000000E+00  0.00000000E+00
  0.00000000E+00  0.00000000E+00  0.00000000E+00
  0.00000000E+00  0.00000000E+00  0.00000000E+00
  0.00000000E+00  0.00000000E+00  0.00000000E+00
  0.00000000E+00  0.00000000E+00  0.00000000E+00
  0.00000000E+00  0.00000000E+00  0.00000000E+00
  0.00000000E+00  0.00000000E+00  0.00000000E+00
  0.00000000E+00  0.00000000E+00  0.00000000E+00
  0.00000000E+00  0.00000000E+00  0.00000000E+00
  0.00000000E+00  0.00000000E+00  0.00000000E+00
  0.00000000E+00  0.00000000E+00  0.00000000E+00
  0.00000000E+00  0.00000000E+00  0.00000000E+00
  0.00000000E+00  0.00000000E+00  0.00000000E+00
  0.00000000E+00  0.00000000E+00  0.00000000E+00
  0.00000000E+00  0.00000000E+00  0.00000000E+00
  0.00000000E+00  0.00000000E+00  0.00000000E+00
  0.00000000E+00  0.00000000E+00  0.00000000E+00
  0.00000000E+00  0.00000000E+00  0.00000000E+00
  0.00000000E+00  0.00000000E+00  0.00000000E+00
  0.00000000E+00  0.00000000E+00  0.00000000E+00
  0.00000000E+00  0.00000000E+00  0.00000000E+00
  0.00000000E+00  0.00000000E+00  0.00000000E+00
  0.00000000E+00  0.00000000E+00  0.00000000E+00
  0.00000000E+00  0.00000000E+00  0.00000000E+00
  0.00000000E+00  0.00000000E+00  0.00000000E+00
  0.00000000E+00  0.00000000E+00  0.00000000E+00
  0.00000000E+00  0.00000000E+00  0.00000000E+00
  0.00000000E+00  0.00000000E+00  0.00000000E+00
  0.00000000E+00  0.00000000E+00  0.00000000E+00
  0.00000000E+00  0.00000000E+00  0.00000000E+00
  0.00000000E+00  0.00000000E+00  0.00000000E+00
  0.00000000E+00  0.00000000E+00  0.00000000E+00
  0.00000000E+00  0.00000000E+00  0.00000000E+00
  0.00000000E+00  0.00000000E+00  0.00000000E+00
  0.00000000E+00  0.00000000E+00  0.00000000E+00
  0.00000000E+00  0.00000000E+00  0.00000000E+00
  0.00000000E+00  0.00000000E+00  0.00000000E+00
  0.00000000E+00  0.00000000E+00  0.00000000E+00
  0.00000000E+00  0.00000000E+00  0.00000000E+00
  0.00000000E+00  0.00000000E+00  0.00000000E+00
  0.00000000E+00  0.00000000E+00  0.00000000E+00
  0.00000000E+00  0.00000000E+00  0.00000000E+00
  0.00000000E+00  0.00000000E+00  0.00000000E+00
  0.00000000E+00  0.00000000E+00  0.00000000E+00
  0.00000000E+00  0.00000000E+00  0.00000000E+00
  0.00000000E+00  0.00000000E+00  0.00000000E+00
  0.00000000E+00  0.00000000E+00  0.00000000E+00
  0.00000000E+00  0.00000000E+00  0.00000000E+00
  0.00000000E+00  0.00000000E+00  0.00000000E+00
  0.00000000E+00  0.00000000E+00  0.00000000E+00
  0.00000000E+00  0.00000000E+00  0.00000000E+00
  0.00000000E+00  0.00000000E+00  0.00000000E+00
  0.00000000E+00  0.00000000E+00  0.00000000E+00
  0.00000000E+00  0.00000000E+00  0.00000000E+00
  0.00000000E+00  0.00000000E+00  0.00000000E+00
  0.00000000E+00  0.00000000E+00  0.00000000E+00
  0.00000000E+00  0.00000000E+00  0.00000000E+00
  0.00000000E+00  0.00000000E+00  0.00000000E+00
  0.00000000E+00  0.00000000E+00  0.00000000E+00
  0.00000000E+00  0.00000000E+00  0.00000000E+00
  0.00000000E+00  0.00000000E+00  0.00000000E+00
  0.00000000E+00  0.00000000E+00  0.00000000E+00
  0.00000000E+00  0.00000000E+00  0.00000000E+00
  0.00000000E+00  0.00000000E+00  0.00000000E+00
  0.00000000E+00  0.00000000E+00  0.00000000E+00
  0.00000000E+00  0.00000000E+00  0.00000000E+00
  0.00000000E+00  0.00000000E+00  0.00000000E+00
  0.00000000E+00  0.00000000E+00  0.00000000E+00
  0.00000000E+00  0.00000000E+00  0.00000000E+00
  0.00000000E+00  0.00000000E+00  0.00000000E+00
  0.00000000E+00  0.00000000E+00  0.00000000E+00
  0.00000000E+00  0.00000000E+00  0.00000000E+00
  0.00000000E+00  0.00000000E+00  0.00000000E+00
  0.00000000E+00  0.00000000E+00  0.00000000E+00
  0.00000000E+00  0.00000000E+00  0.00000000E+00
  0.00000000E+00  0.00000000E+00  0.00000000E+00
  0.00000000E+00  0.00000000E+00  0.00000000E+00
  0.00000000E+00  0.00000000E+00  0.00000000E+00
  0.00000000E+00  0.00000000E+00  0.00000000E+00
  0.00000000E+00  0.00000000E+00  0.00000000E+00
  0.00000000E+00  0.00000000E+00  0.00000000E+00
  0.00000000E+00  0.00000000E+00  0.00000000E+00
  0.00000000E+00  0.00000000E+00  0.00000000E+00
  0.00000000E+00  0.00000000E+00  0.00000000E+00
  0.00000000E+00  0.00000000E+00  0.00000000E+00
  0.00000000E+00  0.00000000E+00  0.00000000E+00
  0.00000000E+00  0.00000000E+00  0.00000000E+00
  0.00000000E+00  0.00000000E+00  0.00000000E+00
  0.00000000E+00  0.00000000E+00  0.00000000E+00
  0.00000000E+00  0.00000000E+00  0.00000000E+00
  0.00000000E+00  0.00000000E+00  0.00000000E+00
  0.00000000E+00  0.00000000E+00  0.00000000E+00
  0.00000000E+00  0.00000000E+00  0.00000000E+00
  0.00000000E+00  0.00000000E+00  0.00000000E+00
  0.00000000E+00  0.00000000E+00  0.00000000E+00
  0.00000000E+00  0.00000000E+00  0.00000000E+00
  0.00000000E+00  0.00000000E+00  0.00000000E+00
  0.00000000E+00  0.00000000E+00  0.00000000E+00
  0.00000000E+00  0.00000000E+00  0.00000000E+00
  0.00000000E+00  0.00000000E+00  0.00000000E+00
  0.00000000E+00  0.00000000E+00  0.00000000E+00
  0.00000000E+00  0.00000000E+00  0.00000000E+00
  0.00000000E+00  0.00000000E+00  0.00000000E+00
  0.00000000E+00  0.00000000E+00  0.00000000E+00
  0.00000000E+00  0.00000000E+00  0.00000000E+00
  0.00000000E+00  0.00000000E+00  0.00000000E+00
  0.00000000E+00  0.00000000E+00  0.00000000E+00
  0.00000000E+00  0.00000000E+00  0.00000000E+00
  0.00000000E+00  0.00000000E+00  0.00000000E+00
