New structure                           
   1.00000000000000     
    14.2799999999999994    0.0000000000000000    0.0000000000000000
     0.0000000000000000   14.2799999999999994    0.0000000000000000
     0.0000000000000000    0.0000000000000000   14.2799999999999994
   Ni   Al
   256     1
Direct
 -0.0045874412291124 -0.0000000000000000  0.0000000000000000
 -0.0025350080387043  0.1275350080387042  0.1275350080387042
  0.1250000000000000 -0.0000000000000000  0.1295874412291124
  0.1250000000000000  0.1295874412291124  0.0000000000000000
 -0.0008883415935196 -0.0000000000000000  0.2508924316434870
 -0.0001808912497745  0.1251808912497746  0.3751991436083391
  0.1250000000000000 -0.0000000000000000  0.3751117906168689
  0.1250000000000000  0.1258883415935196  0.2508924316434870
 -0.0000762889181494 -0.0000000000000000  0.5000000000000000
 -0.0001808912497745  0.1251808912497746  0.6248008563916608
  0.1250000000000000 -0.0000000000000000  0.6248882093831309
  0.1250000000000000  0.1250762889181495  0.5000000000000000
 -0.0008883415935196 -0.0000000000000000  0.7491075683565128
 -0.0025350080387043  0.1275350080387042  0.8724649919612957
  0.1250000000000000 -0.0000000000000000  0.8704125587708875
  0.1250000000000000  0.1258883415935196  0.7491075683565128
 -0.0008883415935196  0.2508924316434870  0.0000000000000000
 -0.0001808912497745  0.3751991436083391  0.1251808912497746
  0.1250000000000000  0.2508924316434870  0.1258883415935196
  0.1250000000000000  0.3751117906168689  0.0000000000000000
 -0.0001897321765280  0.2507125636798018  0.2507125636798018
 -0.0001995265211942  0.3752512460456937  0.3752512460456937
  0.1250000000000000  0.2505359414149553  0.3755474319340216
  0.1250000000000000  0.3755474319340216  0.2505359414149553
 -0.0001580598767486  0.2501571739498927  0.5000000000000000
 -0.0001995265211942  0.3752512460456937  0.6247487539543063
  0.1250000000000000  0.2505359414149553  0.6244525680659783
  0.1250000000000000  0.3752975075673934  0.5000000000000000
 -0.0001897321765280  0.2507125636798018  0.7492874363201983
 -0.0001808912497745  0.3751991436083391  0.8748191087502256
  0.1250000000000000  0.2508924316434870  0.8741116584064805
  0.1250000000000000  0.3755474319340216  0.7494640585850447
 -0.0000762889181494  0.5000000000000000  0.0000000000000000
 -0.0001808912497745  0.6248008563916608  0.1251808912497746
  0.1250000000000000  0.5000000000000000  0.1250762889181495
  0.1250000000000000  0.6248882093831309  0.0000000000000000
 -0.0001580598767486  0.5000000000000000  0.2501571739498927
 -0.0001995265211942  0.6247487539543063  0.3752512460456937
  0.1250000000000000  0.5000000000000000  0.3752975075673934
  0.1250000000000000  0.6244525680659783  0.2505359414149553
 -0.0002548203170274  0.5000000000000000  0.5000000000000000
 -0.0001995265211942  0.6247487539543063  0.6247487539543063
  0.1250000000000000  0.5000000000000000  0.6247024924326066
  0.1250000000000000  0.6247024924326066  0.5000000000000000
 -0.0001580598767486  0.5000000000000000  0.7498428260501074
 -0.0001808912497745  0.6248008563916608  0.8748191087502256
  0.1250000000000000  0.5000000000000000  0.8749237110818506
  0.1250000000000000  0.6244525680659783  0.7494640585850447
 -0.0008883415935196  0.7491075683565128  0.0000000000000000
 -0.0025350080387043  0.8724649919612957  0.1275350080387042
  0.1250000000000000  0.7491075683565128  0.1258883415935196
  0.1250000000000000  0.8704125587708875  0.0000000000000000
 -0.0001897321765280  0.7492874363201983  0.2507125636798018
 -0.0001808912497745  0.8748191087502256  0.3751991436083391
  0.1250000000000000  0.7494640585850447  0.3755474319340216
  0.1250000000000000  0.8741116584064805  0.2508924316434870
 -0.0001580598767486  0.7498428260501074  0.5000000000000000
 -0.0001808912497745  0.8748191087502256  0.6248008563916608
  0.1250000000000000  0.7494640585850447  0.6244525680659783
  0.1250000000000000  0.8749237110818506  0.5000000000000000
 -0.0001897321765280  0.7492874363201983  0.7492874363201983
 -0.0025350080387043  0.8724649919612957  0.8724649919612957
  0.1250000000000000  0.7491075683565128  0.8741116584064805
  0.1250000000000000  0.8741116584064805  0.7491075683565128
  0.2545874412291124 -0.0000000000000000  0.0000000000000000
  0.2525350080387044  0.1275350080387042  0.1275350080387042
  0.3758924316434870 -0.0000000000000000  0.1258883415935196
  0.3758924316434870  0.1258883415935196  0.0000000000000000
  0.2508883415935195 -0.0000000000000000  0.2508924316434870
  0.2501808912497746  0.1251808912497746  0.3751991436083391
  0.3755359414149553 -0.0000000000000000  0.3755474319340216
  0.3757125636798018  0.1251897321765280  0.2507125636798018
  0.2500762889181494 -0.0000000000000000  0.5000000000000000
  0.2501808912497746  0.1251808912497746  0.6248008563916608
  0.3755359414149553 -0.0000000000000000  0.6244525680659783
  0.3751571739498927  0.1251580598767487  0.5000000000000000
  0.2508883415935195 -0.0000000000000000  0.7491075683565128
  0.2525350080387044  0.1275350080387042  0.8724649919612957
  0.3758924316434870 -0.0000000000000000  0.8741116584064805
  0.3757125636798018  0.1251897321765280  0.7492874363201983
  0.2508883415935195  0.2508924316434870  0.0000000000000000
  0.2501808912497746  0.3751991436083391  0.1251808912497746
  0.3757125636798018  0.2507125636798018  0.1251897321765280
  0.3755359414149553  0.3755474319340216  0.0000000000000000
  0.2501897321765280  0.2507125636798018  0.2507125636798018
  0.2501995265211943  0.3752512460456937  0.3752512460456937
  0.3752333365629044  0.2502333365629044  0.3752082928224647
  0.3752333365629044  0.3752082928224647  0.2502333365629044
  0.2501580598767486  0.2501571739498927  0.5000000000000000
  0.2501995265211943  0.3752512460456937  0.6247487539543063
  0.3752333365629044  0.2502333365629044  0.6247917071775355
  0.3751781395027795  0.3750894149088044  0.5000000000000000
  0.2501897321765280  0.2507125636798018  0.7492874363201983
  0.2501808912497746  0.3751991436083391  0.8748191087502256
  0.3757125636798018  0.2507125636798018  0.8748102678234720
  0.3752333365629044  0.3752082928224647  0.7497666634370957
  0.2500762889181494  0.5000000000000000  0.0000000000000000
  0.2501808912497746  0.6248008563916608  0.1251808912497746
  0.3751571739498927  0.5000000000000000  0.1251580598767487
  0.3755359414149553  0.6244525680659783  0.0000000000000000
  0.2501580598767486  0.5000000000000000  0.2501571739498927
  0.2501995265211943  0.6247487539543063  0.3752512460456937
  0.3751781395027795  0.5000000000000000  0.3750894149088044
  0.3752333365629044  0.6247917071775355  0.2502333365629044
  0.2502548203170273  0.5000000000000000  0.5000000000000000
  0.2501995265211943  0.6247487539543063  0.6247487539543063
  0.3751781395027795  0.5000000000000000  0.6249105850911956
  0.3751781395027795  0.6249105850911956  0.5000000000000000
  0.2501580598767486  0.5000000000000000  0.7498428260501074
  0.2501808912497746  0.6248008563916608  0.8748191087502256
  0.3751571739498927  0.5000000000000000  0.8748419401232513
  0.3752333365629044  0.6247917071775355  0.7497666634370957
  0.2508883415935195  0.7491075683565128  0.0000000000000000
  0.2525350080387044  0.8724649919612957  0.1275350080387042
  0.3757125636798018  0.7492874363201983  0.1251897321765280
  0.3758924316434870  0.8741116584064805  0.0000000000000000
  0.2501897321765280  0.7492874363201983  0.2507125636798018
  0.2501808912497746  0.8748191087502256  0.3751991436083391
  0.3752333365629044  0.7497666634370957  0.3752082928224647
  0.3757125636798018  0.8748102678234720  0.2507125636798018
  0.2501580598767486  0.7498428260501074  0.5000000000000000
  0.2501808912497746  0.8748191087502256  0.6248008563916608
  0.3752333365629044  0.7497666634370957  0.6247917071775355
  0.3751571739498927  0.8748419401232513  0.5000000000000000
  0.2501897321765280  0.7492874363201983  0.7492874363201983
  0.2525350080387044  0.8724649919612957  0.8724649919612957
  0.3757125636798018  0.7492874363201983  0.8748102678234720
  0.3757125636798018  0.8748102678234720  0.7492874363201983
  0.5001117906168691 -0.0000000000000000  0.0000000000000000
  0.5001991436083391  0.1251808912497746  0.1251808912497746
  0.6250000000000000 -0.0000000000000000  0.1250762889181495
  0.6250000000000000  0.1250762889181495  0.0000000000000000
  0.5005474319340217 -0.0000000000000000  0.2505359414149553
  0.5002512460456937  0.1251995265211941  0.3752512460456937
  0.6250000000000000 -0.0000000000000000  0.3752975075673934
  0.6250000000000000  0.1251580598767487  0.2501571739498927
  0.5002975075673934 -0.0000000000000000  0.5000000000000000
  0.5002512460456937  0.1251995265211941  0.6247487539543063
  0.6250000000000000 -0.0000000000000000  0.6247024924326066
  0.6250000000000000  0.1252548203170275  0.5000000000000000
  0.5005474319340217 -0.0000000000000000  0.7494640585850447
  0.5001991436083391  0.1251808912497746  0.8748191087502256
  0.6250000000000000 -0.0000000000000000  0.8749237110818506
  0.6250000000000000  0.1251580598767487  0.7498428260501074
  0.5005474319340217  0.2505359414149553  0.0000000000000000
  0.5002512460456937  0.3752512460456937  0.1251995265211941
  0.6250000000000000  0.2501571739498927  0.1251580598767487
  0.6250000000000000  0.3752975075673934  0.0000000000000000
  0.5002082928224646  0.2502333365629044  0.2502333365629044
  0.5001301454475590  0.3751301454475590  0.3751301454475590
  0.6250000000000000  0.2501781395027795  0.3750894149088044
  0.6250000000000000  0.3750894149088044  0.2501781395027795
  0.5000894149088043  0.2501781395027795  0.5000000000000000
  0.5001301454475590  0.3751301454475590  0.6248698545524410
  0.6250000000000000  0.2501781395027795  0.6249105850911956
  0.6250000000000000  0.3750893678315866  0.5000000000000000
  0.5002082928224646  0.2502333365629044  0.7497666634370957
  0.5002512460456937  0.3752512460456937  0.8748004734788057
  0.6250000000000000  0.2501571739498927  0.8748419401232513
  0.6250000000000000  0.3750894149088044  0.7498218604972208
  0.5002975075673934  0.5000000000000000  0.0000000000000000
  0.5002512460456937  0.6247487539543063  0.1251995265211941
  0.6250000000000000  0.5000000000000000  0.1252548203170275
  0.6250000000000000  0.6247024924326066  0.0000000000000000
  0.5000894149088043  0.5000000000000000  0.2501781395027795
  0.5001301454475590  0.6248698545524410  0.3751301454475590
  0.6250000000000000  0.5000000000000000  0.3750893678315866
  0.6250000000000000  0.6249105850911956  0.2501781395027795
  0.5000893678315866  0.5000000000000000  0.5000000000000000
  0.5001301454475590  0.6248698545524410  0.6248698545524410
  0.6250000000000000  0.5000000000000000  0.6249106321684134
  0.6250000000000000  0.6249106321684134  0.5000000000000000
  0.5000894149088043  0.5000000000000000  0.7498218604972208
  0.5002512460456937  0.6247487539543063  0.8748004734788057
  0.6250000000000000  0.5000000000000000  0.8747451796829727
  0.6250000000000000  0.6249105850911956  0.7498218604972208
  0.5005474319340217  0.7494640585850447  0.0000000000000000
  0.5001991436083391  0.8748191087502256  0.1251808912497746
  0.6250000000000000  0.7498428260501074  0.1251580598767487
  0.6250000000000000  0.8749237110818506  0.0000000000000000
  0.5002082928224646  0.7497666634370957  0.2502333365629044
  0.5002512460456937  0.8748004734788057  0.3752512460456937
  0.6250000000000000  0.7498218604972208  0.3750894149088044
  0.6250000000000000  0.8748419401232513  0.2501571739498927
  0.5000894149088043  0.7498218604972208  0.5000000000000000
  0.5002512460456937  0.8748004734788057  0.6247487539543063
  0.6250000000000000  0.7498218604972208  0.6249105850911956
  0.6250000000000000  0.8747451796829727  0.5000000000000000
  0.5002082928224646  0.7497666634370957  0.7497666634370957
  0.5001991436083391  0.8748191087502256  0.8748191087502256
  0.6250000000000000  0.7498428260501074  0.8748419401232513
  0.6250000000000000  0.8748419401232513  0.7498428260501074
  0.7498882093831309 -0.0000000000000000  0.0000000000000000
  0.7498008563916608  0.1251808912497746  0.1251808912497746
  0.8741075683565128 -0.0000000000000000  0.1258883415935196
  0.8741075683565128  0.1258883415935196  0.0000000000000000
  0.7494525680659783 -0.0000000000000000  0.2505359414149553
  0.7497487539543063  0.1251995265211941  0.3752512460456937
  0.8744640585850447 -0.0000000000000000  0.3755474319340216
  0.8742874363201983  0.1251897321765280  0.2507125636798018
  0.7497024924326066 -0.0000000000000000  0.5000000000000000
  0.7497487539543063  0.1251995265211941  0.6247487539543063
  0.8744640585850447 -0.0000000000000000  0.6244525680659783
  0.8748428260501074  0.1251580598767487  0.5000000000000000
  0.7494525680659783 -0.0000000000000000  0.7494640585850447
  0.7498008563916608  0.1251808912497746  0.8748191087502256
  0.8741075683565128 -0.0000000000000000  0.8741116584064805
  0.8742874363201983  0.1251897321765280  0.7492874363201983
  0.7494525680659783  0.2505359414149553  0.0000000000000000
  0.7497487539543063  0.3752512460456937  0.1251995265211941
  0.8742874363201983  0.2507125636798018  0.1251897321765280
  0.8744640585850447  0.3755474319340216  0.0000000000000000
  0.7497917071775355  0.2502333365629044  0.2502333365629044
  0.7498698545524410  0.3751301454475590  0.3751301454475590
  0.8747666634370957  0.2502333365629044  0.3752082928224647
  0.8747666634370957  0.3752082928224647  0.2502333365629044
  0.7499105850911956  0.2501781395027795  0.5000000000000000
  0.7498698545524410  0.3751301454475590  0.6248698545524410
  0.8747666634370957  0.2502333365629044  0.6247917071775355
  0.8748218604972208  0.3750894149088044  0.5000000000000000
  0.7497917071775355  0.2502333365629044  0.7497666634370957
  0.7497487539543063  0.3752512460456937  0.8748004734788057
  0.8742874363201983  0.2507125636798018  0.8748102678234720
  0.8747666634370957  0.3752082928224647  0.7497666634370957
  0.7497024924326066  0.5000000000000000  0.0000000000000000
  0.7497487539543063  0.6247487539543063  0.1251995265211941
  0.8748428260501074  0.5000000000000000  0.1251580598767487
  0.8744640585850447  0.6244525680659783  0.0000000000000000
  0.7499105850911956  0.5000000000000000  0.2501781395027795
  0.7498698545524410  0.6248698545524410  0.3751301454475590
  0.8748218604972208  0.5000000000000000  0.3750894149088044
  0.8747666634370957  0.6247917071775355  0.2502333365629044
  0.7499106321684134  0.5000000000000000  0.5000000000000000
  0.7498698545524410  0.6248698545524410  0.6248698545524410
  0.8748218604972208  0.5000000000000000  0.6249105850911956
  0.8748218604972208  0.6249105850911956  0.5000000000000000
  0.7499105850911956  0.5000000000000000  0.7498218604972208
  0.7497487539543063  0.6247487539543063  0.8748004734788057
  0.8748428260501074  0.5000000000000000  0.8748419401232513
  0.8747666634370957  0.6247917071775355  0.7497666634370957
  0.7494525680659783  0.7494640585850447  0.0000000000000000
  0.7498008563916608  0.8748191087502256  0.1251808912497746
  0.8742874363201983  0.7492874363201983  0.1251897321765280
  0.8741075683565128  0.8741116584064805  0.0000000000000000
  0.7497917071775355  0.7497666634370957  0.2502333365629044
  0.7497487539543063  0.8748004734788057  0.3752512460456937
  0.8747666634370957  0.7497666634370957  0.3752082928224647
  0.8742874363201983  0.8748102678234720  0.2507125636798018
  0.7499105850911956  0.7498218604972208  0.5000000000000000
  0.7497487539543063  0.8748004734788057  0.6247487539543063
  0.8747666634370957  0.7497666634370957  0.6247917071775355
  0.8748428260501074  0.8748419401232513  0.5000000000000000
  0.7497917071775355  0.7497666634370957  0.7497666634370957
  0.7498008563916608  0.8748191087502256  0.8748191087502256
  0.8742874363201983  0.7492874363201983  0.8748102678234720
  0.8742874363201983  0.8748102678234720  0.7492874363201983
  0.1250000000000000 -0.0000000000000000  0.0000000000000000
 
  0.00000000E+00  0.00000000E+00  0.00000000E+00
  0.00000000E+00  0.00000000E+00  0.00000000E+00
  0.00000000E+00  0.00000000E+00  0.00000000E+00
  0.00000000E+00  0.00000000E+00  0.00000000E+00
  0.00000000E+00  0.00000000E+00  0.00000000E+00
  0.00000000E+00  0.00000000E+00  0.00000000E+00
  0.00000000E+00  0.00000000E+00  0.00000000E+00
  0.00000000E+00  0.00000000E+00  0.00000000E+00
  0.00000000E+00  0.00000000E+00  0.00000000E+00
  0.00000000E+00  0.00000000E+00  0.00000000E+00
  0.00000000E+00  0.00000000E+00  0.00000000E+00
  0.00000000E+00  0.00000000E+00  0.00000000E+00
  0.00000000E+00  0.00000000E+00  0.00000000E+00
  0.00000000E+00  0.00000000E+00  0.00000000E+00
  0.00000000E+00  0.00000000E+00  0.00000000E+00
  0.00000000E+00  0.00000000E+00  0.00000000E+00
  0.00000000E+00  0.00000000E+00  0.00000000E+00
  0.00000000E+00  0.00000000E+00  0.00000000E+00
  0.00000000E+00  0.00000000E+00  0.00000000E+00
  0.00000000E+00  0.00000000E+00  0.00000000E+00
  0.00000000E+00  0.00000000E+00  0.00000000E+00
  0.00000000E+00  0.00000000E+00  0.00000000E+00
  0.00000000E+00  0.00000000E+00  0.00000000E+00
  0.00000000E+00  0.00000000E+00  0.00000000E+00
  0.00000000E+00  0.00000000E+00  0.00000000E+00
  0.00000000E+00  0.00000000E+00  0.00000000E+00
  0.00000000E+00  0.00000000E+00  0.00000000E+00
  0.00000000E+00  0.00000000E+00  0.00000000E+00
  0.00000000E+00  0.00000000E+00  0.00000000E+00
  0.00000000E+00  0.00000000E+00  0.00000000E+00
  0.00000000E+00  0.00000000E+00  0.00000000E+00
  0.00000000E+00  0.00000000E+00  0.00000000E+00
  0.00000000E+00  0.00000000E+00  0.00000000E+00
  0.00000000E+00  0.00000000E+00  0.00000000E+00
  0.00000000E+00  0.00000000E+00  0.00000000E+00
  0.00000000E+00  0.00000000E+00  0.00000000E+00
  0.00000000E+00  0.00000000E+00  0.00000000E+00
  0.00000000E+00  0.00000000E+00  0.00000000E+00
  0.00000000E+00  0.00000000E+00  0.00000000E+00
  0.00000000E+00  0.00000000E+00  0.00000000E+00
  0.00000000E+00  0.00000000E+00  0.00000000E+00
  0.00000000E+00  0.00000000E+00  0.00000000E+00
  0.00000000E+00  0.00000000E+00  0.00000000E+00
  0.00000000E+00  0.00000000E+00  0.00000000E+00
  0.00000000E+00  0.00000000E+00  0.00000000E+00
  0.00000000E+00  0.00000000E+00  0.00000000E+00
  0.00000000E+00  0.00000000E+00  0.00000000E+00
  0.00000000E+00  0.00000000E+00  0.00000000E+00
  0.00000000E+00  0.00000000E+00  0.00000000E+00
  0.00000000E+00  0.00000000E+00  0.00000000E+00
  0.00000000E+00  0.00000000E+00  0.00000000E+00
  0.00000000E+00  0.00000000E+00  0.00000000E+00
  0.00000000E+00  0.00000000E+00  0.00000000E+00
  0.00000000E+00  0.00000000E+00  0.00000000E+00
  0.00000000E+00  0.00000000E+00  0.00000000E+00
  0.00000000E+00  0.00000000E+00  0.00000000E+00
  0.00000000E+00  0.00000000E+00  0.00000000E+00
  0.00000000E+00  0.00000000E+00  0.00000000E+00
  0.00000000E+00  0.00000000E+00  0.00000000E+00
  0.00000000E+00  0.00000000E+00  0.00000000E+00
  0.00000000E+00  0.00000000E+00  0.00000000E+00
  0.00000000E+00  0.00000000E+00  0.00000000E+00
  0.00000000E+00  0.00000000E+00  0.00000000E+00
  0.00000000E+00  0.00000000E+00  0.00000000E+00
  0.00000000E+00  0.00000000E+00  0.00000000E+00
  0.00000000E+00  0.00000000E+00  0.00000000E+00
  0.00000000E+00  0.00000000E+00  0.00000000E+00
  0.00000000E+00  0.00000000E+00  0.00000000E+00
  0.00000000E+00  0.00000000E+00  0.00000000E+00
  0.00000000E+00  0.00000000E+00  0.00000000E+00
  0.00000000E+00  0.00000000E+00  0.00000000E+00
  0.00000000E+00  0.00000000E+00  0.00000000E+00
  0.00000000E+00  0.00000000E+00  0.00000000E+00
  0.00000000E+00  0.00000000E+00  0.00000000E+00
  0.00000000E+00  0.00000000E+00  0.00000000E+00
  0.00000000E+00  0.00000000E+00  0.00000000E+00
  0.00000000E+00  0.00000000E+00  0.00000000E+00
  0.00000000E+00  0.00000000E+00  0.00000000E+00
  0.00000000E+00  0.00000000E+00  0.00000000E+00
  0.00000000E+00  0.00000000E+00  0.00000000E+00
  0.00000000E+00  0.00000000E+00  0.00000000E+00
  0.00000000E+00  0.00000000E+00  0.00000000E+00
  0.00000000E+00  0.00000000E+00  0.00000000E+00
  0.00000000E+00  0.00000000E+00  0.00000000E+00
  0.00000000E+00  0.00000000E+00  0.00000000E+00
  0.00000000E+00  0.00000000E+00  0.00000000E+00
  0.00000000E+00  0.00000000E+00  0.00000000E+00
  0.00000000E+00  0.00000000E+00  0.00000000E+00
  0.00000000E+00  0.00000000E+00  0.00000000E+00
  0.00000000E+00  0.00000000E+00  0.00000000E+00
  0.00000000E+00  0.00000000E+00  0.00000000E+00
  0.00000000E+00  0.00000000E+00  0.00000000E+00
  0.00000000E+00  0.00000000E+00  0.00000000E+00
  0.00000000E+00  0.00000000E+00  0.00000000E+00
  0.00000000E+00  0.00000000E+00  0.00000000E+00
  0.00000000E+00  0.00000000E+00  0.00000000E+00
  0.00000000E+00  0.00000000E+00  0.00000000E+00
  0.00000000E+00  0.00000000E+00  0.00000000E+00
  0.00000000E+00  0.00000000E+00  0.00000000E+00
  0.00000000E+00  0.00000000E+00  0.00000000E+00
  0.00000000E+00  0.00000000E+00  0.00000000E+00
  0.00000000E+00  0.00000000E+00  0.00000000E+00
  0.00000000E+00  0.00000000E+00  0.00000000E+00
  0.00000000E+00  0.00000000E+00  0.00000000E+00
  0.00000000E+00  0.00000000E+00  0.00000000E+00
  0.00000000E+00  0.00000000E+00  0.00000000E+00
  0.00000000E+00  0.00000000E+00  0.00000000E+00
  0.00000000E+00  0.00000000E+00  0.00000000E+00
  0.00000000E+00  0.00000000E+00  0.00000000E+00
  0.00000000E+00  0.00000000E+00  0.00000000E+00
  0.00000000E+00  0.00000000E+00  0.00000000E+00
  0.00000000E+00  0.00000000E+00  0.00000000E+00
  0.00000000E+00  0.00000000E+00  0.00000000E+00
  0.00000000E+00  0.00000000E+00  0.00000000E+00
  0.00000000E+00  0.00000000E+00  0.00000000E+00
  0.00000000E+00  0.00000000E+00  0.00000000E+00
  0.00000000E+00  0.00000000E+00  0.00000000E+00
  0.00000000E+00  0.00000000E+00  0.00000000E+00
  0.00000000E+00  0.00000000E+00  0.00000000E+00
  0.00000000E+00  0.00000000E+00  0.00000000E+00
  0.00000000E+00  0.00000000E+00  0.00000000E+00
  0.00000000E+00  0.00000000E+00  0.00000000E+00
  0.00000000E+00  0.00000000E+00  0.00000000E+00
  0.00000000E+00  0.00000000E+00  0.00000000E+00
  0.00000000E+00  0.00000000E+00  0.00000000E+00
  0.00000000E+00  0.00000000E+00  0.00000000E+00
  0.00000000E+00  0.00000000E+00  0.00000000E+00
  0.00000000E+00  0.00000000E+00  0.00000000E+00
  0.00000000E+00  0.00000000E+00  0.00000000E+00
  0.00000000E+00  0.00000000E+00  0.00000000E+00
  0.00000000E+00  0.00000000E+00  0.00000000E+00
  0.00000000E+00  0.00000000E+00  0.00000000E+00
  0.00000000E+00  0.00000000E+00  0.00000000E+00
  0.00000000E+00  0.00000000E+00  0.00000000E+00
  0.00000000E+00  0.00000000E+00  0.00000000E+00
  0.00000000E+00  0.00000000E+00  0.00000000E+00
  0.00000000E+00  0.00000000E+00  0.00000000E+00
  0.00000000E+00  0.00000000E+00  0.00000000E+00
  0.00000000E+00  0.00000000E+00  0.00000000E+00
  0.00000000E+00  0.00000000E+00  0.00000000E+00
  0.00000000E+00  0.00000000E+00  0.00000000E+00
  0.00000000E+00  0.00000000E+00  0.00000000E+00
  0.00000000E+00  0.00000000E+00  0.00000000E+00
  0.00000000E+00  0.00000000E+00  0.00000000E+00
  0.00000000E+00  0.00000000E+00  0.00000000E+00
  0.00000000E+00  0.00000000E+00  0.00000000E+00
  0.00000000E+00  0.00000000E+00  0.00000000E+00
  0.00000000E+00  0.00000000E+00  0.00000000E+00
  0.00000000E+00  0.00000000E+00  0.00000000E+00
  0.00000000E+00  0.00000000E+00  0.00000000E+00
  0.00000000E+00  0.00000000E+00  0.00000000E+00
  0.00000000E+00  0.00000000E+00  0.00000000E+00
  0.00000000E+00  0.00000000E+00  0.00000000E+00
  0.00000000E+00  0.00000000E+00  0.00000000E+00
  0.00000000E+00  0.00000000E+00  0.00000000E+00
  0.00000000E+00  0.00000000E+00  0.00000000E+00
  0.00000000E+00  0.00000000E+00  0.00000000E+00
  0.00000000E+00  0.00000000E+00  0.00000000E+00
  0.00000000E+00  0.00000000E+00  0.00000000E+00
  0.00000000E+00  0.00000000E+00  0.00000000E+00
  0.00000000E+00  0.00000000E+00  0.00000000E+00
  0.00000000E+00  0.00000000E+00  0.00000000E+00
  0.00000000E+00  0.00000000E+00  0.00000000E+00
  0.00000000E+00  0.00000000E+00  0.00000000E+00
  0.00000000E+00  0.00000000E+00  0.00000000E+00
  0.00000000E+00  0.00000000E+00  0.00000000E+00
  0.00000000E+00  0.00000000E+00  0.00000000E+00
  0.00000000E+00  0.00000000E+00  0.00000000E+00
  0.00000000E+00  0.00000000E+00  0.00000000E+00
  0.00000000E+00  0.00000000E+00  0.00000000E+00
  0.00000000E+00  0.00000000E+00  0.00000000E+00
  0.00000000E+00  0.00000000E+00  0.00000000E+00
  0.00000000E+00  0.00000000E+00  0.00000000E+00
  0.00000000E+00  0.00000000E+00  0.00000000E+00
  0.00000000E+00  0.00000000E+00  0.00000000E+00
  0.00000000E+00  0.00000000E+00  0.00000000E+00
  0.00000000E+00  0.00000000E+00  0.00000000E+00
  0.00000000E+00  0.00000000E+00  0.00000000E+00
  0.00000000E+00  0.00000000E+00  0.00000000E+00
  0.00000000E+00  0.00000000E+00  0.00000000E+00
  0.00000000E+00  0.00000000E+00  0.00000000E+00
  0.00000000E+00  0.00000000E+00  0.00000000E+00
  0.00000000E+00  0.00000000E+00  0.00000000E+00
  0.00000000E+00  0.00000000E+00  0.00000000E+00
  0.00000000E+00  0.00000000E+00  0.00000000E+00
  0.00000000E+00  0.00000000E+00  0.00000000E+00
  0.00000000E+00  0.00000000E+00  0.00000000E+00
  0.00000000E+00  0.00000000E+00  0.00000000E+00
  0.00000000E+00  0.00000000E+00  0.00000000E+00
  0.00000000E+00  0.00000000E+00  0.00000000E+00
  0.00000000E+00  0.00000000E+00  0.00000000E+00
  0.00000000E+00  0.00000000E+00  0.00000000E+00
  0.00000000E+00  0.00000000E+00  0.00000000E+00
  0.00000000E+00  0.00000000E+00  0.00000000E+00
  0.00000000E+00  0.00000000E+00  0.00000000E+00
  0.00000000E+00  0.00000000E+00  0.00000000E+00
  0.00000000E+00  0.00000000E+00  0.00000000E+00
  0.00000000E+00  0.00000000E+00  0.00000000E+00
  0.00000000E+00  0.00000000E+00  0.00000000E+00
  0.00000000E+00  0.00000000E+00  0.00000000E+00
  0.00000000E+00  0.00000000E+00  0.00000000E+00
  0.00000000E+00  0.00000000E+00  0.00000000E+00
  0.00000000E+00  0.00000000E+00  0.00000000E+00
  0.00000000E+00  0.00000000E+00  0.00000000E+00
  0.00000000E+00  0.00000000E+00  0.00000000E+00
  0.00000000E+00  0.00000000E+00  0.00000000E+00
  0.00000000E+00  0.00000000E+00  0.00000000E+00
  0.00000000E+00  0.00000000E+00  0.00000000E+00
  0.00000000E+00  0.00000000E+00  0.00000000E+00
  0.00000000E+00  0.00000000E+00  0.00000000E+00
  0.00000000E+00  0.00000000E+00  0.00000000E+00
  0.00000000E+00  0.00000000E+00  0.00000000E+00
  0.00000000E+00  0.00000000E+00  0.00000000E+00
  0.00000000E+00  0.00000000E+00  0.00000000E+00
  0.00000000E+00  0.00000000E+00  0.00000000E+00
  0.00000000E+00  0.00000000E+00  0.00000000E+00
  0.00000000E+00  0.00000000E+00  0.00000000E+00
  0.00000000E+00  0.00000000E+00  0.00000000E+00
  0.00000000E+00  0.00000000E+00  0.00000000E+00
  0.00000000E+00  0.00000000E+00  0.00000000E+00
  0.00000000E+00  0.00000000E+00  0.00000000E+00
  0.00000000E+00  0.00000000E+00  0.00000000E+00
  0.00000000E+00  0.00000000E+00  0.00000000E+00
  0.00000000E+00  0.00000000E+00  0.00000000E+00
  0.00000000E+00  0.00000000E+00  0.00000000E+00
  0.00000000E+00  0.00000000E+00  0.00000000E+00
  0.00000000E+00  0.00000000E+00  0.00000000E+00
  0.00000000E+00  0.00000000E+00  0.00000000E+00
  0.00000000E+00  0.00000000E+00  0.00000000E+00
  0.00000000E+00  0.00000000E+00  0.00000000E+00
  0.00000000E+00  0.00000000E+00  0.00000000E+00
  0.00000000E+00  0.00000000E+00  0.00000000E+00
  0.00000000E+00  0.00000000E+00  0.00000000E+00
  0.00000000E+00  0.00000000E+00  0.00000000E+00
  0.00000000E+00  0.00000000E+00  0.00000000E+00
  0.00000000E+00  0.00000000E+00  0.00000000E+00
  0.00000000E+00  0.00000000E+00  0.00000000E+00
  0.00000000E+00  0.00000000E+00  0.00000000E+00
  0.00000000E+00  0.00000000E+00  0.00000000E+00
  0.00000000E+00  0.00000000E+00  0.00000000E+00
  0.00000000E+00  0.00000000E+00  0.00000000E+00
  0.00000000E+00  0.00000000E+00  0.00000000E+00
  0.00000000E+00  0.00000000E+00  0.00000000E+00
  0.00000000E+00  0.00000000E+00  0.00000000E+00
  0.00000000E+00  0.00000000E+00  0.00000000E+00
  0.00000000E+00  0.00000000E+00  0.00000000E+00
  0.00000000E+00  0.00000000E+00  0.00000000E+00
  0.00000000E+00  0.00000000E+00  0.00000000E+00
  0.00000000E+00  0.00000000E+00  0.00000000E+00
  0.00000000E+00  0.00000000E+00  0.00000000E+00
  0.00000000E+00  0.00000000E+00  0.00000000E+00
  0.00000000E+00  0.00000000E+00  0.00000000E+00
  0.00000000E+00  0.00000000E+00  0.00000000E+00
  0.00000000E+00  0.00000000E+00  0.00000000E+00
  0.00000000E+00  0.00000000E+00  0.00000000E+00
  0.00000000E+00  0.00000000E+00  0.00000000E+00
  0.00000000E+00  0.00000000E+00  0.00000000E+00
