New structure                           
   1.00000000000000     
     0.0000000000000000  -17.1805734624895479    0.0000000000000000
     0.0000000000000000   -8.5902867312447739  -14.8788130701007191
    30.0000000000000000    0.0000000000000000    0.0000000000000000
   Al   N 
   252     1
Direct
  0.4442877419158790  0.4447578495015708  0.0784925354313085
  0.4441675732946762  0.7778064351466087  0.0791559523130271
  0.4446139711851172  0.1110383148731184  0.0790727355846151
  0.7779151756309189  0.4443474208893035  0.0789622546923843
  0.7779076701207145  0.7775179930919069  0.0785005564072305
  0.7776810472751000  0.1110383148731184  0.0790727355846151
  0.1110707368131131  0.4443474208893035  0.0789622546923843
  0.1113593248920509  0.7778064351466087  0.0791559523130271
  0.1111546046733648  0.1110241239866133  0.0786360502455639
  0.5551895410274208  0.5555235316019173  0.1570313868466776
  0.5557136861026982  0.8887566237285514  0.1570126309216463
  0.5554784270579542  0.2223764792174275  0.1573025098587158
  0.8889774041601434  0.5553785250130420  0.1572357243117675
  0.8888630235020792  0.8887566237285514  0.1570126309216463
  0.8889386624983553  0.2223504050082193  0.1571138484757251
  0.2226202607039980  0.5555235316019173  0.1570313868466776
  0.2223293987166521  0.8886745359000247  0.1571518468703665
  0.2220442658267540  0.2223504050082193  0.1571138484757251
  0.6665891816645201  0.6667651301103406  0.2340360903266626
  0.6667777291084412 -0.0002221248835538  0.2338383375184729
  0.6661530816616733  0.3337557342964631  0.2339160432424451
 -0.0000209784415322  0.6667651301103406  0.2340360903266626
  0.0000962380292158  0.0000017657720312  0.2339411753122045
  0.0001152741426076  0.3331027850481206  0.2339547047603845
  0.3334634610734304  0.6664064111864748  0.2339241354563134
  0.3332353295320887  0.0000017657720312  0.2339411753122045
  0.3334245173751996  0.3337557342964631  0.2339160432424451
  0.7777287800107182  0.7778757733118983  0.3117943599139809
  0.7778870757051759  0.1112747326421089  0.3117034633997269
  0.7774946110525122  0.4445394824269835  0.3117128260658908
  0.1115400278122353  0.7773886482894995  0.3117563157305456
  0.1111231313244915  0.1110870706843598  0.3119390314101896
  0.1112992398538400  0.4445394824269835  0.3117128260658908
  0.4444046572316008  0.7773886482894995  0.3117563157305456
  0.4441715249860510  0.1112747326421089  0.3117034633997269
  0.4444355399291609  0.4444622534750068  0.3120218643326017
  0.8891879339649471  0.8887729658555206  0.3897042826746124
  0.8887174812736515  0.2222163841056568  0.3896121506339327
  0.8888551291019378  0.5556230751294527  0.3895959009035584
  0.2222157612492718  0.8889018108347854  0.3895454384343824
  0.2223994679540205  0.2222163841056568  0.3896121506339327
  0.2226823083471241  0.5555391631185207  0.3899910786261080
  0.5553724335128607  0.8887729658555206  0.3897042826746124
  0.5553090743078152  0.2227151847177056  0.3899355135074105
  0.5551118618676902  0.5555391631185207  0.3899910786261080
 -0.0002112442119779 -0.0000712516624886  0.4664496348193357
  0.0000359754468771  0.3332613824395814  0.4662135872398339
 -0.0001150469557617  0.6669263180239771  0.4666141078262501
  0.3336158292078023 -0.0000712516624886  0.4664496348193357
  0.3333623929210978  0.3322801167598429  0.4659819421366208
  0.3330931896054066  0.6671469541225226  0.4665558526730012
  0.6665914604034691  0.0001504125263906  0.4662444359182760
  0.6676908236523945  0.3322801167598429  0.4659819421366208
  0.6665220622651129  0.6669263180239771  0.4666141078262501
  0.1109840060637518  0.1113653212058393  0.5443964217672774
  0.1097876760301296  0.4442142541015947  0.5445769100794540
  0.1116726955504974  0.7782917995280310  0.5452257658262974
  0.4447512433302461  0.1110169977631295  0.5447715597731768
  0.4464704107000790  0.4403925119331705  0.5481316742602066
  0.4433688382548076  0.7782917995280310  0.5452257658262974
  0.7775650922399603  0.1110169977631295  0.5447715597731768
  0.7793314032016116  0.4442142541015947  0.5445769100794540
  0.7777929881843620  0.7777473569646117  0.5442370006866308
  0.2776807542226392  0.2777374034797774  0.0789622546923843
  0.2780911828349065  0.6109544085825501  0.0784925354313085
  0.2776807542226392  0.9445818422975832  0.0789622546923843
  0.6111397684799444  0.2780259915587151  0.0791559523130271
  0.6111397684799444  0.6108342399613474  0.0791559523130271
  0.6108513264252428  0.9445743367873788  0.0785005564072305
  0.9443574573199420  0.2778212713400290  0.0786360502455639
  0.9443716482064470  0.6112806378517888  0.0790727355846151
  0.9443716482064470  0.9443477139417643  0.0790727355846151
  0.3888568649352456  0.3892869273706624  0.1570313868466776
  0.3888568649352456  0.7218562076940851  0.1570313868466776
  0.3887118583463706  0.0556440708268148  0.1572357243117675
  0.7220078692333604  0.3889960653833163  0.1571518468703665
  0.7220899570618871  0.7223803527693625  0.1570126309216463
  0.7220899570618871  0.0555296901687505  0.1570126309216463
  0.0556837383415550  0.3887109324934184  0.1571138484757251
  0.0557098125507632  0.7221450937246185  0.1573025098587158
  0.0556837383415550  0.0556053291650267  0.1571138484757251
  0.4997397445198110  0.5001301277400945  0.2339241354563134
  0.5000984634436763  0.8332558483311915  0.2340360903266626
  0.5000984634436763  0.1666456882251321  0.2340360903266626
  0.8333350991053671  0.4999019961987530  0.2339411753122045
  0.8331112084497821  0.8334443957751126  0.2338383375184729
  0.8333350991053671  0.1667629046958800  0.2339411753122045
  0.1670890676297917  0.5000911840418639  0.2339160432424451
  0.1670890676297917  0.8328197483283447  0.2339160432424451
  0.1664361183814492  0.1667819408092718  0.2339547047603845
  0.6107219816228352  0.6110713238982727  0.3117563157305456
  0.6112091066452340  0.9443954466773825  0.3117943599139809
  0.6107219816228352  0.2782066944788995  0.3117563157305456
  0.9446080659754372  0.6108381916527225  0.3117034633997269
  0.9446080659754372  0.9445537423718402  0.3117034633997269
  0.9444204040176883  0.2777897979911558  0.3119390314101896
  0.2777955868083425  0.6111022065958321  0.3120218643326017
  0.2778728157603192  0.9441612777191765  0.3117128260658908
  0.2778728157603192  0.2779659065205042  0.3117128260658908
  0.7221062991888563  0.7220391001795250  0.3897042826746124
  0.7221062991888563  0.0558546006316185  0.3897042826746124
  0.7222351441681211  0.3888824279159359  0.3895454384343824
  0.0560485180510412  0.7219757409744795  0.3899355135074105
  0.0555497174389925  0.0553841479403227  0.3896121506339327
  0.0555497174389925  0.3890661346206847  0.3896121506339327
  0.3888724964518496  0.7217785285343545  0.3899910786261080
  0.3889564084627813  0.0555217957686093  0.3895959009035584
  0.3888724964518496  0.3893489750137885  0.3899910786261080
  0.8334837458597260  0.8332581270701405  0.4662444359182760
  0.8332620816708471  0.1664554224546864  0.4664496348193357
  0.8332620816708471  0.5002824958744664  0.4664496348193357
  0.1656134500931716  0.8343574903190659  0.4659819421366208
  0.1665947157729101  0.1667026421135414  0.4662135872398339
  0.1656134500931716  0.5000290595877622  0.4659819421366208
  0.5002596513573128  0.8331887289317843  0.4666141078262501
  0.5002596513573128  0.1665516197109027  0.4666141078262501
  0.5004802874558584  0.4997598562720708  0.4665558526730012
  0.9443503310964581  0.9442317589066246  0.5447715597731768
  0.9446986545391679  0.2776506727304160  0.5443964217672774
  0.9443503310964581  0.6114179099969173  0.5447715597731768
  0.2775475874349304  0.9459980698682759  0.5445769100794540
  0.2775475874349304  0.2764543426967939  0.5445769100794540
  0.2737258452665062  0.6131370773667503  0.5481316742602066
  0.6110806902979474  0.9444596548510263  0.5442370006866308
  0.6116251328613667  0.2783393622171619  0.5452257658262974
  0.6116251328613667  0.6100355049214790  0.5452257658262974
  0.2777495276832541  0.4444161943499184  0.0784887474704677
  0.2777495276832541  0.7778342779668276  0.0784887474704677
  0.2778100903031061  0.1110949548484504  0.0788875933231222
  0.6111676113001633  0.4444161943499184  0.0784887474704677
  0.6110200141205553  0.7776866807872196  0.0789207673591540
  0.6110200141205553  0.1112933050922325  0.0789207673591540
  0.9444282881817792  0.4444767569697704  0.0788875933231222
  0.9446266384255612  0.7776866807872196  0.0789207673591540
  0.9444282881817792  0.1110949548484504  0.0788875933231222
  0.3888888888888857  0.5555555555555571  0.1568982778340069
  0.3888113153003749  0.8888768084771690  0.1572424949948073
  0.3888113153003749  0.2223118762224488  0.1572424949948073
  0.7222101418105047  0.5554779819670467  0.1572424949948073
  0.7222222222222214  0.8888888888888857  0.1567458450966732
  0.7222101418105047  0.2223118762224488  0.1572424949948073
  0.0556452095557844  0.5554779819670467  0.1572424949948073
  0.0556452095557844  0.8888768084771690  0.1572424949948073
  0.0555555555555571  0.2222222222222214  0.1569193973231926
  0.4997408952422886  0.6664075619089529  0.2337560951480782
  0.5004509824029832 -0.0002254912014916  0.2338858925844303
  0.4997408952422886  0.3338515428487585  0.2337560951480782
  0.8331078421318444  0.6671176490696475  0.2338858925844303
  0.8331078421318444 -0.0002254912014916  0.2338858925844303
  0.8333514316800533  0.3333242841599769  0.2338946086991827
  0.1671848761820869  0.6664075619089529  0.2337560951480782
  0.1666576174933055  0.0000180983467175  0.2338946086991827
  0.1666576174933055  0.3333242841599769  0.2338946086991827
  0.6111497251784160  0.7778163918450803  0.3117629167300118
  0.6111497251784160  0.1110338829765111  0.3117629167300118
  0.6105540680054430  0.4447229659972785  0.3119764239566786
  0.9443672163098399  0.7778163918450803  0.3117629167300118
  0.9445531172423508  0.1112197839090223  0.3118391422156159
  0.9445531172423508  0.4442270988486267  0.3118391422156159
  0.2780562993306142  0.7772207346721073  0.3119764239566786
  0.2775604321819624  0.1112197839090223  0.3118391422156159
  0.2780562993306142  0.4447229659972785  0.3119764239566786
  0.7222222222222214  0.8888888888888857  0.3898899224156898
  0.7218480750407706  0.2224070982990043  0.3895578117394675
  0.7218480750407706  0.5557448266602250  0.3895578117394675
  0.0557404316323401  0.8885147417074349  0.3895578117394675
  0.0555555555555571  0.2222222222222214  0.3894997619881556
  0.0557404316323401  0.5557448266602250  0.3895578117394675
  0.3890781599935533  0.8885147417074349  0.3895578117394675
  0.3890781599935533  0.2224070982990043  0.3895578117394675
  0.3888888888888857  0.5555555555555571  0.3891412352594739
  0.8333902030975422  0.0000568697642066  0.4662850865703904
  0.8341237862947991  0.3329381068526040  0.4661774310298221
  0.8333902030975422  0.6665529271382510  0.4662850865703904
  0.1662714401859327  0.0007904529614633  0.4661774310298221
  0.1662714401859327  0.3329381068526040  0.4661774310298221
  0.1675490506447158  0.6662254746776384  0.4670121778950310
  0.4998862604715869  0.0000568697642066  0.4662850865703904
  0.4995588080109743  0.3342157173113872  0.4670121778950310
  0.4995588080109743  0.6662254746776384  0.4670121778950310
  0.9444624427619485  0.1111291094286197  0.5445571445154013
  0.9444624427619485  0.4444084478094320  0.5445571445154013
  0.9453366047425530  0.7773316976287236  0.5450512613857624
  0.2777417811427677  0.1111291094286197  0.5445571445154013
  0.2749510787626246  0.4416177454292889  0.5427402726046049
  0.2749510787626246  0.7834311758080865  0.5427402726046049
  0.6106650309620593  0.1120032714092244  0.5450512613857624
  0.6167645091414222  0.4416177454292889  0.5427402726046049
  0.6106650309620593  0.7773316976287236  0.5450512613857624
  0.4441675732946762  0.2780259915587151  0.0791559523130271
  0.4442877419158790  0.6109544085825501  0.0784925354313085
  0.4446139711851172  0.9443477139417643  0.0790727355846151
  0.7779151756309189  0.2777374034797774  0.0789622546923843
  0.7776810472751000  0.6112806378517888  0.0790727355846151
  0.7779076701207145  0.9445743367873788  0.0785005564072305
  0.1111546046733648  0.2778212713400290  0.0786360502455639
  0.1113593248920509  0.6108342399613474  0.0791559523130271
  0.1110707368131131  0.9445818422975832  0.0789622546923843
  0.5551895410274208  0.3892869273706624  0.1570313868466776
  0.5554784270579542  0.7221450937246185  0.1573025098587158
  0.5557136861026982  0.0555296901687505  0.1570126309216463
  0.8889386624983553  0.3887109324934184  0.1571138484757251
  0.8888630235020792  0.7223803527693625  0.1570126309216463
  0.8889774041601434  0.0556440708268148  0.1572357243117675
  0.2223293987166521  0.3889960653833163  0.1571518468703665
  0.2226202607039980  0.7218562076940851  0.1570313868466776
  0.2220442658267540  0.0556053291650267  0.1571138484757251
  0.6661530816616733  0.5000911840418639  0.2339160432424451
  0.6667777291084412  0.8334443957751126  0.2338383375184729
  0.6665891816645201  0.1666456882251321  0.2340360903266626
  0.0000962380292158  0.4999019961987530  0.2339411753122045
 -0.0000209784415322  0.8332558483311915  0.2340360903266626
  0.0001152741426076  0.1667819408092718  0.2339547047603845
  0.3334634610734304  0.5001301277400945  0.2339241354563134
  0.3334245173751996  0.8328197483283447  0.2339160432424451
  0.3332353295320887  0.1667629046958800  0.2339411753122045
  0.7778870757051759  0.6108381916527225  0.3117034633997269
  0.7777287800107182  0.9443954466773825  0.3117943599139809
  0.7774946110525122  0.2779659065205042  0.3117128260658908
  0.1115400278122353  0.6110713238982727  0.3117563157305456
  0.1112992398538400  0.9441612777191765  0.3117128260658908
  0.1111231313244915  0.2777897979911558  0.3119390314101896
  0.4444355399291609  0.6111022065958321  0.3120218643326017
  0.4441715249860510  0.9445537423718402  0.3117034633997269
  0.4444046572316008  0.2782066944788995  0.3117563157305456
  0.8891879339649471  0.7220391001795250  0.3897042826746124
  0.8888551291019378  0.0555217957686093  0.3895959009035584
  0.8887174812736515  0.3890661346206847  0.3896121506339327
  0.2226823083471241  0.7217785285343545  0.3899910786261080
  0.2223994679540205  0.0553841479403227  0.3896121506339327
  0.2222157612492718  0.3888824279159359  0.3895454384343824
  0.5553090743078152  0.7219757409744795  0.3899355135074105
  0.5553724335128607  0.0558546006316185  0.3897042826746124
  0.5551118618676902  0.3893489750137885  0.3899910786261080
 -0.0001150469557617  0.8331887289317843  0.4666141078262501
  0.0000359754468771  0.1667026421135414  0.4662135872398339
 -0.0002112442119779  0.5002824958744664  0.4664496348193357
  0.3333623929210978  0.8343574903190659  0.4659819421366208
  0.3336158292078023  0.1664554224546864  0.4664496348193357
  0.3330931896054066  0.4997598562720708  0.4665558526730012
  0.6665914604034691  0.8332581270701405  0.4662444359182760
  0.6665220622651129  0.1665516197109027  0.4666141078262501
  0.6676908236523945  0.5000290595877622  0.4659819421366208
  0.1097876760301296  0.9459980698682759  0.5445769100794540
  0.1109840060637518  0.2776506727304160  0.5443964217672774
  0.1116726955504974  0.6100355049214790  0.5452257658262974
  0.4447512433302461  0.9442317589066246  0.5447715597731768
  0.4433688382548076  0.2783393622171619  0.5452257658262974
  0.4464704107000790  0.6131370773667503  0.5481316742602066
  0.7777929881843620  0.9444596548510263  0.5442370006866308
  0.7793314032016116  0.2764543426967939  0.5445769100794540
  0.7775650922399603  0.6114179099969173  0.5447715597731768
  0.3888888888888857  0.5555555555555571  0.5715268044493432
 
  0.00000000E+00  0.00000000E+00  0.00000000E+00
  0.00000000E+00  0.00000000E+00  0.00000000E+00
  0.00000000E+00  0.00000000E+00  0.00000000E+00
  0.00000000E+00  0.00000000E+00  0.00000000E+00
  0.00000000E+00  0.00000000E+00  0.00000000E+00
  0.00000000E+00  0.00000000E+00  0.00000000E+00
  0.00000000E+00  0.00000000E+00  0.00000000E+00
  0.00000000E+00  0.00000000E+00  0.00000000E+00
  0.00000000E+00  0.00000000E+00  0.00000000E+00
  0.00000000E+00  0.00000000E+00  0.00000000E+00
  0.00000000E+00  0.00000000E+00  0.00000000E+00
  0.00000000E+00  0.00000000E+00  0.00000000E+00
  0.00000000E+00  0.00000000E+00  0.00000000E+00
  0.00000000E+00  0.00000000E+00  0.00000000E+00
  0.00000000E+00  0.00000000E+00  0.00000000E+00
  0.00000000E+00  0.00000000E+00  0.00000000E+00
  0.00000000E+00  0.00000000E+00  0.00000000E+00
  0.00000000E+00  0.00000000E+00  0.00000000E+00
  0.00000000E+00  0.00000000E+00  0.00000000E+00
  0.00000000E+00  0.00000000E+00  0.00000000E+00
  0.00000000E+00  0.00000000E+00  0.00000000E+00
  0.00000000E+00  0.00000000E+00  0.00000000E+00
  0.00000000E+00  0.00000000E+00  0.00000000E+00
  0.00000000E+00  0.00000000E+00  0.00000000E+00
  0.00000000E+00  0.00000000E+00  0.00000000E+00
  0.00000000E+00  0.00000000E+00  0.00000000E+00
  0.00000000E+00  0.00000000E+00  0.00000000E+00
  0.00000000E+00  0.00000000E+00  0.00000000E+00
  0.00000000E+00  0.00000000E+00  0.00000000E+00
  0.00000000E+00  0.00000000E+00  0.00000000E+00
  0.00000000E+00  0.00000000E+00  0.00000000E+00
  0.00000000E+00  0.00000000E+00  0.00000000E+00
  0.00000000E+00  0.00000000E+00  0.00000000E+00
  0.00000000E+00  0.00000000E+00  0.00000000E+00
  0.00000000E+00  0.00000000E+00  0.00000000E+00
  0.00000000E+00  0.00000000E+00  0.00000000E+00
  0.00000000E+00  0.00000000E+00  0.00000000E+00
  0.00000000E+00  0.00000000E+00  0.00000000E+00
  0.00000000E+00  0.00000000E+00  0.00000000E+00
  0.00000000E+00  0.00000000E+00  0.00000000E+00
  0.00000000E+00  0.00000000E+00  0.00000000E+00
  0.00000000E+00  0.00000000E+00  0.00000000E+00
  0.00000000E+00  0.00000000E+00  0.00000000E+00
  0.00000000E+00  0.00000000E+00  0.00000000E+00
  0.00000000E+00  0.00000000E+00  0.00000000E+00
  0.00000000E+00  0.00000000E+00  0.00000000E+00
  0.00000000E+00  0.00000000E+00  0.00000000E+00
  0.00000000E+00  0.00000000E+00  0.00000000E+00
  0.00000000E+00  0.00000000E+00  0.00000000E+00
  0.00000000E+00  0.00000000E+00  0.00000000E+00
  0.00000000E+00  0.00000000E+00  0.00000000E+00
  0.00000000E+00  0.00000000E+00  0.00000000E+00
  0.00000000E+00  0.00000000E+00  0.00000000E+00
  0.00000000E+00  0.00000000E+00  0.00000000E+00
  0.00000000E+00  0.00000000E+00  0.00000000E+00
  0.00000000E+00  0.00000000E+00  0.00000000E+00
  0.00000000E+00  0.00000000E+00  0.00000000E+00
  0.00000000E+00  0.00000000E+00  0.00000000E+00
  0.00000000E+00  0.00000000E+00  0.00000000E+00
  0.00000000E+00  0.00000000E+00  0.00000000E+00
  0.00000000E+00  0.00000000E+00  0.00000000E+00
  0.00000000E+00  0.00000000E+00  0.00000000E+00
  0.00000000E+00  0.00000000E+00  0.00000000E+00
  0.00000000E+00  0.00000000E+00  0.00000000E+00
  0.00000000E+00  0.00000000E+00  0.00000000E+00
  0.00000000E+00  0.00000000E+00  0.00000000E+00
  0.00000000E+00  0.00000000E+00  0.00000000E+00
  0.00000000E+00  0.00000000E+00  0.00000000E+00
  0.00000000E+00  0.00000000E+00  0.00000000E+00
  0.00000000E+00  0.00000000E+00  0.00000000E+00
  0.00000000E+00  0.00000000E+00  0.00000000E+00
  0.00000000E+00  0.00000000E+00  0.00000000E+00
  0.00000000E+00  0.00000000E+00  0.00000000E+00
  0.00000000E+00  0.00000000E+00  0.00000000E+00
  0.00000000E+00  0.00000000E+00  0.00000000E+00
  0.00000000E+00  0.00000000E+00  0.00000000E+00
  0.00000000E+00  0.00000000E+00  0.00000000E+00
  0.00000000E+00  0.00000000E+00  0.00000000E+00
  0.00000000E+00  0.00000000E+00  0.00000000E+00
  0.00000000E+00  0.00000000E+00  0.00000000E+00
  0.00000000E+00  0.00000000E+00  0.00000000E+00
  0.00000000E+00  0.00000000E+00  0.00000000E+00
  0.00000000E+00  0.00000000E+00  0.00000000E+00
  0.00000000E+00  0.00000000E+00  0.00000000E+00
  0.00000000E+00  0.00000000E+00  0.00000000E+00
  0.00000000E+00  0.00000000E+00  0.00000000E+00
  0.00000000E+00  0.00000000E+00  0.00000000E+00
  0.00000000E+00  0.00000000E+00  0.00000000E+00
  0.00000000E+00  0.00000000E+00  0.00000000E+00
  0.00000000E+00  0.00000000E+00  0.00000000E+00
  0.00000000E+00  0.00000000E+00  0.00000000E+00
  0.00000000E+00  0.00000000E+00  0.00000000E+00
  0.00000000E+00  0.00000000E+00  0.00000000E+00
  0.00000000E+00  0.00000000E+00  0.00000000E+00
  0.00000000E+00  0.00000000E+00  0.00000000E+00
  0.00000000E+00  0.00000000E+00  0.00000000E+00
  0.00000000E+00  0.00000000E+00  0.00000000E+00
  0.00000000E+00  0.00000000E+00  0.00000000E+00
  0.00000000E+00  0.00000000E+00  0.00000000E+00
  0.00000000E+00  0.00000000E+00  0.00000000E+00
  0.00000000E+00  0.00000000E+00  0.00000000E+00
  0.00000000E+00  0.00000000E+00  0.00000000E+00
  0.00000000E+00  0.00000000E+00  0.00000000E+00
  0.00000000E+00  0.00000000E+00  0.00000000E+00
  0.00000000E+00  0.00000000E+00  0.00000000E+00
  0.00000000E+00  0.00000000E+00  0.00000000E+00
  0.00000000E+00  0.00000000E+00  0.00000000E+00
  0.00000000E+00  0.00000000E+00  0.00000000E+00
  0.00000000E+00  0.00000000E+00  0.00000000E+00
  0.00000000E+00  0.00000000E+00  0.00000000E+00
  0.00000000E+00  0.00000000E+00  0.00000000E+00
  0.00000000E+00  0.00000000E+00  0.00000000E+00
  0.00000000E+00  0.00000000E+00  0.00000000E+00
  0.00000000E+00  0.00000000E+00  0.00000000E+00
  0.00000000E+00  0.00000000E+00  0.00000000E+00
  0.00000000E+00  0.00000000E+00  0.00000000E+00
  0.00000000E+00  0.00000000E+00  0.00000000E+00
  0.00000000E+00  0.00000000E+00  0.00000000E+00
  0.00000000E+00  0.00000000E+00  0.00000000E+00
  0.00000000E+00  0.00000000E+00  0.00000000E+00
  0.00000000E+00  0.00000000E+00  0.00000000E+00
  0.00000000E+00  0.00000000E+00  0.00000000E+00
  0.00000000E+00  0.00000000E+00  0.00000000E+00
  0.00000000E+00  0.00000000E+00  0.00000000E+00
  0.00000000E+00  0.00000000E+00  0.00000000E+00
  0.00000000E+00  0.00000000E+00  0.00000000E+00
  0.00000000E+00  0.00000000E+00  0.00000000E+00
  0.00000000E+00  0.00000000E+00  0.00000000E+00
  0.00000000E+00  0.00000000E+00  0.00000000E+00
  0.00000000E+00  0.00000000E+00  0.00000000E+00
  0.00000000E+00  0.00000000E+00  0.00000000E+00
  0.00000000E+00  0.00000000E+00  0.00000000E+00
  0.00000000E+00  0.00000000E+00  0.00000000E+00
  0.00000000E+00  0.00000000E+00  0.00000000E+00
  0.00000000E+00  0.00000000E+00  0.00000000E+00
  0.00000000E+00  0.00000000E+00  0.00000000E+00
  0.00000000E+00  0.00000000E+00  0.00000000E+00
  0.00000000E+00  0.00000000E+00  0.00000000E+00
  0.00000000E+00  0.00000000E+00  0.00000000E+00
  0.00000000E+00  0.00000000E+00  0.00000000E+00
  0.00000000E+00  0.00000000E+00  0.00000000E+00
  0.00000000E+00  0.00000000E+00  0.00000000E+00
  0.00000000E+00  0.00000000E+00  0.00000000E+00
  0.00000000E+00  0.00000000E+00  0.00000000E+00
  0.00000000E+00  0.00000000E+00  0.00000000E+00
  0.00000000E+00  0.00000000E+00  0.00000000E+00
  0.00000000E+00  0.00000000E+00  0.00000000E+00
  0.00000000E+00  0.00000000E+00  0.00000000E+00
  0.00000000E+00  0.00000000E+00  0.00000000E+00
  0.00000000E+00  0.00000000E+00  0.00000000E+00
  0.00000000E+00  0.00000000E+00  0.00000000E+00
  0.00000000E+00  0.00000000E+00  0.00000000E+00
  0.00000000E+00  0.00000000E+00  0.00000000E+00
  0.00000000E+00  0.00000000E+00  0.00000000E+00
  0.00000000E+00  0.00000000E+00  0.00000000E+00
  0.00000000E+00  0.00000000E+00  0.00000000E+00
  0.00000000E+00  0.00000000E+00  0.00000000E+00
  0.00000000E+00  0.00000000E+00  0.00000000E+00
  0.00000000E+00  0.00000000E+00  0.00000000E+00
  0.00000000E+00  0.00000000E+00  0.00000000E+00
  0.00000000E+00  0.00000000E+00  0.00000000E+00
  0.00000000E+00  0.00000000E+00  0.00000000E+00
  0.00000000E+00  0.00000000E+00  0.00000000E+00
  0.00000000E+00  0.00000000E+00  0.00000000E+00
  0.00000000E+00  0.00000000E+00  0.00000000E+00
  0.00000000E+00  0.00000000E+00  0.00000000E+00
  0.00000000E+00  0.00000000E+00  0.00000000E+00
  0.00000000E+00  0.00000000E+00  0.00000000E+00
  0.00000000E+00  0.00000000E+00  0.00000000E+00
  0.00000000E+00  0.00000000E+00  0.00000000E+00
  0.00000000E+00  0.00000000E+00  0.00000000E+00
  0.00000000E+00  0.00000000E+00  0.00000000E+00
  0.00000000E+00  0.00000000E+00  0.00000000E+00
  0.00000000E+00  0.00000000E+00  0.00000000E+00
  0.00000000E+00  0.00000000E+00  0.00000000E+00
  0.00000000E+00  0.00000000E+00  0.00000000E+00
  0.00000000E+00  0.00000000E+00  0.00000000E+00
  0.00000000E+00  0.00000000E+00  0.00000000E+00
  0.00000000E+00  0.00000000E+00  0.00000000E+00
  0.00000000E+00  0.00000000E+00  0.00000000E+00
  0.00000000E+00  0.00000000E+00  0.00000000E+00
  0.00000000E+00  0.00000000E+00  0.00000000E+00
  0.00000000E+00  0.00000000E+00  0.00000000E+00
  0.00000000E+00  0.00000000E+00  0.00000000E+00
  0.00000000E+00  0.00000000E+00  0.00000000E+00
  0.00000000E+00  0.00000000E+00  0.00000000E+00
  0.00000000E+00  0.00000000E+00  0.00000000E+00
  0.00000000E+00  0.00000000E+00  0.00000000E+00
  0.00000000E+00  0.00000000E+00  0.00000000E+00
  0.00000000E+00  0.00000000E+00  0.00000000E+00
  0.00000000E+00  0.00000000E+00  0.00000000E+00
  0.00000000E+00  0.00000000E+00  0.00000000E+00
  0.00000000E+00  0.00000000E+00  0.00000000E+00
  0.00000000E+00  0.00000000E+00  0.00000000E+00
  0.00000000E+00  0.00000000E+00  0.00000000E+00
  0.00000000E+00  0.00000000E+00  0.00000000E+00
  0.00000000E+00  0.00000000E+00  0.00000000E+00
  0.00000000E+00  0.00000000E+00  0.00000000E+00
  0.00000000E+00  0.00000000E+00  0.00000000E+00
  0.00000000E+00  0.00000000E+00  0.00000000E+00
  0.00000000E+00  0.00000000E+00  0.00000000E+00
  0.00000000E+00  0.00000000E+00  0.00000000E+00
  0.00000000E+00  0.00000000E+00  0.00000000E+00
  0.00000000E+00  0.00000000E+00  0.00000000E+00
  0.00000000E+00  0.00000000E+00  0.00000000E+00
  0.00000000E+00  0.00000000E+00  0.00000000E+00
  0.00000000E+00  0.00000000E+00  0.00000000E+00
  0.00000000E+00  0.00000000E+00  0.00000000E+00
  0.00000000E+00  0.00000000E+00  0.00000000E+00
  0.00000000E+00  0.00000000E+00  0.00000000E+00
  0.00000000E+00  0.00000000E+00  0.00000000E+00
  0.00000000E+00  0.00000000E+00  0.00000000E+00
  0.00000000E+00  0.00000000E+00  0.00000000E+00
  0.00000000E+00  0.00000000E+00  0.00000000E+00
  0.00000000E+00  0.00000000E+00  0.00000000E+00
  0.00000000E+00  0.00000000E+00  0.00000000E+00
  0.00000000E+00  0.00000000E+00  0.00000000E+00
  0.00000000E+00  0.00000000E+00  0.00000000E+00
  0.00000000E+00  0.00000000E+00  0.00000000E+00
  0.00000000E+00  0.00000000E+00  0.00000000E+00
  0.00000000E+00  0.00000000E+00  0.00000000E+00
  0.00000000E+00  0.00000000E+00  0.00000000E+00
  0.00000000E+00  0.00000000E+00  0.00000000E+00
  0.00000000E+00  0.00000000E+00  0.00000000E+00
  0.00000000E+00  0.00000000E+00  0.00000000E+00
  0.00000000E+00  0.00000000E+00  0.00000000E+00
  0.00000000E+00  0.00000000E+00  0.00000000E+00
  0.00000000E+00  0.00000000E+00  0.00000000E+00
  0.00000000E+00  0.00000000E+00  0.00000000E+00
  0.00000000E+00  0.00000000E+00  0.00000000E+00
  0.00000000E+00  0.00000000E+00  0.00000000E+00
  0.00000000E+00  0.00000000E+00  0.00000000E+00
  0.00000000E+00  0.00000000E+00  0.00000000E+00
  0.00000000E+00  0.00000000E+00  0.00000000E+00
  0.00000000E+00  0.00000000E+00  0.00000000E+00
  0.00000000E+00  0.00000000E+00  0.00000000E+00
  0.00000000E+00  0.00000000E+00  0.00000000E+00
  0.00000000E+00  0.00000000E+00  0.00000000E+00
  0.00000000E+00  0.00000000E+00  0.00000000E+00
  0.00000000E+00  0.00000000E+00  0.00000000E+00
  0.00000000E+00  0.00000000E+00  0.00000000E+00
  0.00000000E+00  0.00000000E+00  0.00000000E+00
  0.00000000E+00  0.00000000E+00  0.00000000E+00
  0.00000000E+00  0.00000000E+00  0.00000000E+00
  0.00000000E+00  0.00000000E+00  0.00000000E+00
  0.00000000E+00  0.00000000E+00  0.00000000E+00
  0.00000000E+00  0.00000000E+00  0.00000000E+00
  0.00000000E+00  0.00000000E+00  0.00000000E+00
  0.00000000E+00  0.00000000E+00  0.00000000E+00
  0.00000000E+00  0.00000000E+00  0.00000000E+00
  0.00000000E+00  0.00000000E+00  0.00000000E+00
  0.00000000E+00  0.00000000E+00  0.00000000E+00
  0.00000000E+00  0.00000000E+00  0.00000000E+00
