New structure                           
   1.00000000000000     
     0.0000000000000000  -17.1805734624895479    0.0000000000000000
     0.0000000000000000   -8.5902867312447739  -14.8788130701007191
    30.0000000000000000    0.0000000000000000    0.0000000000000000
   Al   N 
   252     2
Direct
  0.4421980090242407  0.6224755619314549  0.5471309606820890
  0.6120677289323262  0.4443241454494457  0.5446732645648593
  0.7790320341640242  0.2779339925265288  0.5447463750445293
  0.9443721141757204  0.1123162939544260  0.5447830451814095
  0.9443916437113382  0.2784928648523971  0.5447208314812749
  0.9444028145012788  0.4446096241278522  0.5449117452256628
  0.7774694009692525  0.6114056819899164  0.5448828517646523
  0.6115851869097778  0.7773735153719927  0.5447623951811498
  0.4448527868840921  0.9438388137970324  0.5449475558462452
  0.6114193587815594  0.9427458347231258  0.5444021950978094
  0.7789037020986017  0.9427715133194483  0.5444494791474526
  0.9438922357265573  0.7776239401035151  0.5447272646972540
  0.9442147435816923  0.6112729450735799  0.5449627072795361
  0.8332290500096201  0.6664953634492423  0.4663936870224364
  0.6667519508061858  0.8334469310492807  0.4661777737237590
  0.7225443527479267  0.8883807332332827  0.3896884966373677
  0.8895234832063876  0.7215956182334622  0.3895661155920639
  0.9443335907802994  0.7778709588653115  0.3114790080740878
  0.7778616560122829  0.9441413459613386  0.3114644315281366
  0.9443077354937905  0.9444867206057744  0.3115280486623824
  0.8889898921453578  0.8886357229215922  0.3892529761284979
  0.8330000746857531  0.8334992289718972  0.4662081687679343
  0.7779617935009356  0.7770858202577722  0.5444289156005439
  0.7777586481025893  0.4451637381884921  0.5450157074287096
  0.6656532754745845  0.5005695763283992  0.4667366068268438
  0.8332567624175511  0.3335236202550752  0.4666083297528178
  0.8884353557790826  0.3889533881770628  0.3899334504647128
  0.7216501918928362  0.5555559659972683  0.3897464274026673
  0.7778344283877636  0.6108627386874750  0.3118097349245036
  0.6109672791444728  0.7777321930264689  0.3116813975624249
  0.6669311706587300  0.8331952936350158  0.2339016415860717
  0.8332256212604001  0.6669045830595374  0.2338501966811286
  0.8889083763346999  0.7222186199891991  0.1570739685762586
  0.7223900607710434  0.8886155934791379  0.1569826183612414
  0.7780870752010431  0.9442924181599655  0.0787209017253955
  0.9447077762946668  0.7776114700417798  0.0787518214272489
  0.9445025914372630  0.9444066532682491  0.0791682028681468
  0.8888408170340751  0.8886025388603626  0.1571225425592437
  0.8332208669943995  0.8332412973045917  0.2338038248383275
  0.7776626197799353  0.7778108682712567  0.3117055510526190
  0.7223560892021148  0.7215485816048334  0.3896471086397575
  0.6668776076795851  0.6669933689903836  0.4664185269130449
  0.5552769050895998  0.7221744693567703  0.3895876818314087
  0.5003938563924644  0.8339674012717770  0.4662264309023022
  0.3330313104212752  0.8351644009252943  0.4656490341164888
  0.2722876544874341  0.7889309384146103  0.5426789139527740
  0.1082052194765814  0.9484227228994264  0.5441293901335832
  0.2775236611116014  0.9478404919235766  0.5443111316217092
  0.4441583425227318  0.7809892931086004  0.5443769017922337
  0.4994757272847494  0.6673995718569051  0.4662097591261922
  0.6106955319050620  0.6121197079969048  0.5449629405277897
  0.6112397501709657  0.9441270564799482  0.3116285864222136
  0.4444268444846458  0.9444920480311770  0.3116123514158147
  0.3890161229099446  0.8893463867799384  0.3893468557094750
  0.3881835409795076  0.7223858070539576  0.3896216800193074
  0.2229455855457601  0.7224573339656621  0.3894917345330775
  0.0551742172256654  0.8894438990593224  0.3892188787404177
  0.9981056321400629  0.8347907060110733  0.4659086978657913
  0.1646502650020394  0.6686463597658373  0.4657317689433668
  0.2644546955706822  0.6265443992881448  0.5470677853636421
  0.1105468380525282  0.6120554057867561  0.5447610131779173
  0.2790147041121708  0.4448561177994814  0.5453730242200390
  0.4463906386466669  0.2671424888254115  0.5441064176917847
  0.6135432444351586  0.1059841860519171  0.5443394264520354
  0.6680976271894898  0.1644326351660962  0.4657984441894122
  0.8334700695823846 -0.0001252162740128  0.4661579510605801
  0.8887176745042316  0.0559268518371564  0.3893490634153162
  0.7219362401008252  0.2225549335375379  0.3895392913917428
  0.7776299705945293  0.2778814616340778  0.3118534331189854
  0.6108098941300477  0.4446083484124361  0.3119326201414480
  0.6663157780846645  0.4999480689294820  0.2337730678714955
  0.4997747901514754  0.6664918981868776  0.2338608207110797
  0.5555880348016619  0.7221444517108389  0.1569741708279363
  0.3888984393926045  0.8886272551334982  0.1570314284734664
  0.3334867588051937  0.8330678235265699  0.2338763832406007
  0.2778062616279863  0.7779213750183069  0.3118652630737299
  0.1112317311954745  0.9443706972369813  0.3115836153418723
  0.2777831881167686  0.9443491996048385  0.3116260948130132
  0.2219902330087763  0.8896790051949235  0.3893820958442318
  0.1653629673033015  0.8353077921784456  0.4654785754699695
  0.1055231752679956  0.7836852072824326  0.5439314652763689
  0.9447053611420787  0.6108797767142762  0.3118020178923270
  0.9446512153786322  0.4441226021125816  0.3119421030590189
  0.9445342499570233  0.2779020209626027  0.3120810112448124
  0.9444469467589516  0.1114473513238316  0.3115812667413862
  0.8331196319507312  0.1667852293602683  0.2339572039652019
  0.6665453989212268  0.1669392869901559  0.2339619909460035
  0.4999679904397649  0.3334894878627856  0.2338949027910990
  0.5555445272591167  0.3888772729218707  0.1571369347063524
  0.3888686455836398  0.5557127996281912  0.1573021408160557
  0.4447401888452898  0.6110929619990119  0.0787671838251658
  0.6113533742055627  0.4445128669653793  0.0785349113763306
  0.7778822386984242  0.2777437993331153  0.0785975404718459
  0.7221338761336150  0.2223772453336501  0.1570056665977509
  0.7221227493788593  0.0554695743308170  0.1570733799000377
  0.8888292349582957  0.0556736620979746  0.1572145545821712
  0.8331159648516206  0.9998372823122648  0.2337752884133840
  0.7776274439392685  0.1113608103925641  0.3116153621757731
  0.6111163446988269  0.1110993241363594  0.3113334214184778
  0.5558814148330954  0.0550124922029122  0.3892330535634513
  0.5000045219615327 -0.0004261859653346  0.4662392038319597
  0.3334016316200838  0.1668129251061738  0.4665823015635060
  0.1665518360640072  0.3334995749879349  0.4666089531747920
  0.0000846304645502  0.5000013727699680  0.4667403016870501
  0.0563787886285685  0.5555410693984160  0.3897314346236797
  0.2227605963208011  0.3889771174468210  0.3900445715564066
  0.2779178453005141  0.4445118196863539  0.3119034970116090
  0.1119980675198499  0.6108478370149419  0.3119825524001922
  0.1670737421344451  0.6665674712715880  0.2338371730844238
  0.0002986728800719  0.8331788689857962  0.2338471586602438
  0.0559031374282355  0.8885862258018536  0.1569512880520871
  0.2219285993983766  0.7223916846772197  0.1569187821821541
  0.2777780977156372  0.7777414055210125  0.0782363025582710
  0.1112428760217370  0.9443166377708654  0.0787356985827675
  0.2777494763260208  0.9443990148115373  0.0787803807821278
  0.4445345262895689  0.9443994806324908  0.0792008018225963
  0.6110520395947264  0.7776462435866794  0.0787902991620224
  0.7777609168684597  0.6111808256805669  0.0788692148559957
  0.7221757653323401  0.5555918723818958  0.1569561195650373
  0.8333191800482312  0.4997637633580549  0.2339147434384922
  0.8889508650610443  0.3888286156604053  0.1568686551250933
  0.8333207847610805  0.3332492220970856  0.2337212818188042
  0.7222052173684057  0.3890514074033492  0.1568971976466307
  0.6662632487918314  0.3334399041758734  0.2339239880382454
  0.6106840425302041  0.2785414215604325  0.3119413152235552
  0.5555666925786088  0.2220679402673409  0.3893124383887879
  0.4441039833326130  0.2785194213049549  0.3119618591600362
  0.3884610747101143  0.3902122002834615  0.3904945497919321
  0.5017223893346217  0.3297266897673299  0.4656534299527866
  0.3340054500378949  0.5014400984282047  0.4704793339717272
  0.3889294870810275  0.5553152912589845  0.3911973624704052
  0.4443193554936163  0.6107503289611459  0.3118864812126913
  0.2783422988399575  0.6107160508242119  0.3118247880916106
  0.3333438480557425  0.4999464593108494  0.2337425762561787
  0.1670286393567479  0.4999689319279286  0.2338049195629537
  0.0002258129682491  0.4997720816500745  0.2338770550154064
  0.1667870392257805  0.3332321852710795  0.2337795308978616
  0.2220162726644089  0.3890416439282761  0.1570180199518295
  0.3888178653021557  0.2223169312572642  0.1570295600262333
  0.5556407085583484  0.0555025565634929  0.1570699424477529
  0.5004928901272249  0.9997919281079217  0.2338264143404108
  0.3334654762472255  0.1667351240811583  0.2339681717134794
  0.2778048678791629  0.2779112837046379  0.3119074472815243
  0.1109750876409377  0.2778754166214886  0.3121095688887527
  0.0555402554028521  0.2224175435934089  0.3897726879547852
 -0.0002063216496842  0.1671755774179794  0.4663650861800011
  0.1659502614517243  0.0017100115241880  0.4660527809407712
  0.2221904788671862  0.0559215862056693  0.3894490034600028
  0.2775656922895157  0.1113834330433367  0.3116558729745392
  0.3887037454434133  0.0558132064214007  0.3894481112813505
  0.3889697012904154  0.2224955140406172  0.3896334405000026
  0.5006363881158015  0.1645862567257573  0.4658766065506448
  0.4443114124927363  0.1075555793678127  0.5449045768154462
  0.2770194515671694  0.1122681528421758  0.5449264260331721
  0.1105678517167984  0.2784530028374677  0.5447464039067217
  0.2768584711980634  0.2782846911374588  0.5448199484359932
  0.1110447293997259  0.4449971625530136  0.5450003898557249
  0.1668223802310273  0.5004203995098823  0.4667516678423875
  0.3333762142106019  0.3338612384861052  0.4667464449847978
  0.5001144508480502  0.4999040696927924  0.2337443209676191
  0.4442300031209398  0.4448446209385210  0.3119724846658625
  0.7222399479434151  0.0550856578231871  0.3891537957401549
  0.6668752976477625 -0.0004154001174424  0.4660301101379485
  0.8330628433372339  0.5000740300740644  0.4667157445601756
  0.8891600594441651  0.5551835728183815  0.3897715532806487
  0.4445092615428051  0.7778773457485262  0.0785027345547268
  0.3889510164710638  0.7224282789096752  0.1569202585532236
  0.3333071821890484  0.6668438410182226  0.2338073751399272
  0.1668467759157359  0.8330632019701768  0.2338608044749384
  0.1117262196081955  0.7773064317370645  0.3117515818101025
  0.0558718719080891  0.7222171839377337  0.3892830991001726
  0.9987502771777546  0.6673497186467215  0.4662529082578922
  0.6113234272060101  0.6109993897211869  0.0786689647982769
  0.5556725310322991  0.5557071485237348  0.1569971181247101
  0.2222529959780294  0.8887991158504087  0.1568955287341122
  0.7779998649897744  0.4442289698169371  0.0785198013638698
  0.9444561163085711  0.4444522885869733  0.0786815795176422
  0.9444421332226508  0.6111315347969860  0.0788721886362170
  0.8888717070173474  0.5555362861175605  0.1570794368718900
  0.7222462432941331  0.7221844844770138  0.1570940348417881
  0.6665884570787426  0.6664135816761599  0.2339584373753713
  0.6103446613175750  0.6109231909268644  0.3120248285568966
  0.5544626753098828  0.5551347854147092  0.3903553470037785
  0.4972981464294863  0.5006517951113304  0.4703221700906205
  0.5546545757107574  0.3901405993024880  0.3904382403280842
  0.7214528202363734  0.3891026854653958  0.3900457235662937
  0.6660515189089162  0.3337484212410878  0.4667022262027236
  0.6215274949453742  0.2656712370158185  0.5442499291104936
  0.7816397382027647  0.1074278141960369  0.5449037259826901
  0.8330687933150788  0.1668098742706470  0.4665023947515416
  0.8884772542003853  0.2225312383022759  0.3897528590068787
  0.9443041262023451  0.2777253055409288  0.0785165459247311
  0.9444181198433788  0.1112137843380589  0.0788909244820241
  0.8887574545283341  0.2222727640238584  0.1570414180316570
  0.5000759661593008  0.8331246469991730  0.2339392208806111
  0.4443894317587115  0.7772627190116693  0.3118298238981626
  0.7780614821731667  0.7772253490249982  0.0786721501047176
  0.6109130042825042  0.9442367499458387  0.0787461244078976
  0.5557647887064051  0.8886967522620520  0.1571528538678734
  0.7778193194866947  0.1112301765878950  0.0789759703985624
  0.6111202335135943  0.1110880693644291  0.0787746645047280
  0.4442420771059651  0.2778683554593439  0.0788914545200077
  0.2773291890902156  0.4444815702338641  0.0787047442824648
  0.1109871565357835  0.6109780478323608  0.0786443485333940
  0.0556415473472729  0.5555426933114991  0.1569508565251790
  0.0555634962037337  0.7221232702728613  0.1569330684617647
  0.0004350340423598  0.6663593859731453  0.2338749839515608
  0.6112211722742354  0.2779027889121823  0.0788236440505180
  0.5556499552752705  0.2219982939514634  0.1570859253597688
  0.4999027479286974  0.1669342160426119  0.2339711487980198
  0.4442906283982283  0.1114339008884766  0.3116625640331958
  0.3888223442754103  0.3887860897741159  0.1571822296702241
  0.3336543865783511  0.3334155563399491  0.2339318449096362
  0.4443556601390567  0.4446272546806558  0.0792470516933511
  0.2774644715016305  0.6112039479555093  0.0788525154032924
  0.2219199380171672  0.5557550918447680  0.1570446049710252
  0.1110849910686752  0.7778009512312415  0.0784264413356210
  0.6668994438480162  0.9995748435711025  0.2338313163461925
  0.7774866732871359  0.4441932094810053  0.3118992860314161
  0.1116396795152808  0.4442152970020674  0.3119148034258085
  0.0559692083178509  0.3889303965231784  0.3899266233807142
 -0.0000537490168830  0.3334202278701564  0.4664565948462763
  0.1664821318958972  0.1671228513150041  0.4664278046846688
  0.1107308392083407  0.1121636063056674  0.5446120352686674
  0.5556905164840662  0.8884992634272408  0.3894009766598833
  0.2238361785438007  0.5550612151373376  0.3903272174519504
  0.2224446454398983  0.2224919984270581  0.3897908106470949
  0.3322919701109410  0.6679542156529866  0.4680836167292697
  0.3334922018395017  0.0008040897560586  0.4663299711404334
  0.4615892533772544  0.4157507602735873  0.5482021382113907
  0.1110825656529275  0.4442518268287012  0.0785892050481349
  0.1111929067615743  0.2776868828182315  0.0785762154163872
  0.0555670160693986  0.2221462811876748  0.1569015069999591
  0.0000862314270274  0.1667797905543588  0.2338608125957445
  0.1667281768790720 -0.0001675774494105  0.2337724717136737
  0.2220862674707590  0.0556937916499122  0.1570810682910182
  0.2777041545553690  0.1112114636187083  0.0788535547118977
  0.3887970985710205  0.0556375807567149  0.1572804949702328
  0.3334084948901426 -0.0000739584675765  0.2339324031519386
  0.1664504150909875  0.1668381379954370  0.2338700453816968
  0.1111561244725683  0.1111707559774564  0.3118492878001274
  0.0553023808762943  0.0560077885608117  0.3893957068618965
  0.9990618041017006  0.0009667221307733  0.4662001732929303
  0.2775607013989608  0.2777342121981669  0.0786524941654641
  0.2222170340215378  0.2222498552095254  0.1570549479923325
  0.0555193922041765  0.3888879801402121  0.1568905540923384
  0.0001069235487743  0.3330947183843444  0.2337991902474933
  0.4444700403368546  0.1111881879125846  0.0790106291707927
  0.1110587832421922  0.1112704310084525  0.0787181074933897
  0.0555015966966708  0.0556020236609246  0.1570878040699831
  0.0001029452305699 -0.0001422596179402  0.2338707348253739
  0.9437190543825568  0.9450262294884368  0.5448609792397090
  0.3727193576914106  0.5819677944356885  0.5843415532871880
  0.4064473764239851  0.4973127151392196  0.5953085458331894
 
  0.00000000E+00  0.00000000E+00  0.00000000E+00
  0.00000000E+00  0.00000000E+00  0.00000000E+00
  0.00000000E+00  0.00000000E+00  0.00000000E+00
  0.00000000E+00  0.00000000E+00  0.00000000E+00
  0.00000000E+00  0.00000000E+00  0.00000000E+00
  0.00000000E+00  0.00000000E+00  0.00000000E+00
  0.00000000E+00  0.00000000E+00  0.00000000E+00
  0.00000000E+00  0.00000000E+00  0.00000000E+00
  0.00000000E+00  0.00000000E+00  0.00000000E+00
  0.00000000E+00  0.00000000E+00  0.00000000E+00
  0.00000000E+00  0.00000000E+00  0.00000000E+00
  0.00000000E+00  0.00000000E+00  0.00000000E+00
  0.00000000E+00  0.00000000E+00  0.00000000E+00
  0.00000000E+00  0.00000000E+00  0.00000000E+00
  0.00000000E+00  0.00000000E+00  0.00000000E+00
  0.00000000E+00  0.00000000E+00  0.00000000E+00
  0.00000000E+00  0.00000000E+00  0.00000000E+00
  0.00000000E+00  0.00000000E+00  0.00000000E+00
  0.00000000E+00  0.00000000E+00  0.00000000E+00
  0.00000000E+00  0.00000000E+00  0.00000000E+00
  0.00000000E+00  0.00000000E+00  0.00000000E+00
  0.00000000E+00  0.00000000E+00  0.00000000E+00
  0.00000000E+00  0.00000000E+00  0.00000000E+00
  0.00000000E+00  0.00000000E+00  0.00000000E+00
  0.00000000E+00  0.00000000E+00  0.00000000E+00
  0.00000000E+00  0.00000000E+00  0.00000000E+00
  0.00000000E+00  0.00000000E+00  0.00000000E+00
  0.00000000E+00  0.00000000E+00  0.00000000E+00
  0.00000000E+00  0.00000000E+00  0.00000000E+00
  0.00000000E+00  0.00000000E+00  0.00000000E+00
  0.00000000E+00  0.00000000E+00  0.00000000E+00
  0.00000000E+00  0.00000000E+00  0.00000000E+00
  0.00000000E+00  0.00000000E+00  0.00000000E+00
  0.00000000E+00  0.00000000E+00  0.00000000E+00
  0.00000000E+00  0.00000000E+00  0.00000000E+00
  0.00000000E+00  0.00000000E+00  0.00000000E+00
  0.00000000E+00  0.00000000E+00  0.00000000E+00
  0.00000000E+00  0.00000000E+00  0.00000000E+00
  0.00000000E+00  0.00000000E+00  0.00000000E+00
  0.00000000E+00  0.00000000E+00  0.00000000E+00
  0.00000000E+00  0.00000000E+00  0.00000000E+00
  0.00000000E+00  0.00000000E+00  0.00000000E+00
  0.00000000E+00  0.00000000E+00  0.00000000E+00
  0.00000000E+00  0.00000000E+00  0.00000000E+00
  0.00000000E+00  0.00000000E+00  0.00000000E+00
  0.00000000E+00  0.00000000E+00  0.00000000E+00
  0.00000000E+00  0.00000000E+00  0.00000000E+00
  0.00000000E+00  0.00000000E+00  0.00000000E+00
  0.00000000E+00  0.00000000E+00  0.00000000E+00
  0.00000000E+00  0.00000000E+00  0.00000000E+00
  0.00000000E+00  0.00000000E+00  0.00000000E+00
  0.00000000E+00  0.00000000E+00  0.00000000E+00
  0.00000000E+00  0.00000000E+00  0.00000000E+00
  0.00000000E+00  0.00000000E+00  0.00000000E+00
  0.00000000E+00  0.00000000E+00  0.00000000E+00
  0.00000000E+00  0.00000000E+00  0.00000000E+00
  0.00000000E+00  0.00000000E+00  0.00000000E+00
  0.00000000E+00  0.00000000E+00  0.00000000E+00
  0.00000000E+00  0.00000000E+00  0.00000000E+00
  0.00000000E+00  0.00000000E+00  0.00000000E+00
  0.00000000E+00  0.00000000E+00  0.00000000E+00
  0.00000000E+00  0.00000000E+00  0.00000000E+00
  0.00000000E+00  0.00000000E+00  0.00000000E+00
  0.00000000E+00  0.00000000E+00  0.00000000E+00
  0.00000000E+00  0.00000000E+00  0.00000000E+00
  0.00000000E+00  0.00000000E+00  0.00000000E+00
  0.00000000E+00  0.00000000E+00  0.00000000E+00
  0.00000000E+00  0.00000000E+00  0.00000000E+00
  0.00000000E+00  0.00000000E+00  0.00000000E+00
  0.00000000E+00  0.00000000E+00  0.00000000E+00
  0.00000000E+00  0.00000000E+00  0.00000000E+00
  0.00000000E+00  0.00000000E+00  0.00000000E+00
  0.00000000E+00  0.00000000E+00  0.00000000E+00
  0.00000000E+00  0.00000000E+00  0.00000000E+00
  0.00000000E+00  0.00000000E+00  0.00000000E+00
  0.00000000E+00  0.00000000E+00  0.00000000E+00
  0.00000000E+00  0.00000000E+00  0.00000000E+00
  0.00000000E+00  0.00000000E+00  0.00000000E+00
  0.00000000E+00  0.00000000E+00  0.00000000E+00
  0.00000000E+00  0.00000000E+00  0.00000000E+00
  0.00000000E+00  0.00000000E+00  0.00000000E+00
  0.00000000E+00  0.00000000E+00  0.00000000E+00
  0.00000000E+00  0.00000000E+00  0.00000000E+00
  0.00000000E+00  0.00000000E+00  0.00000000E+00
  0.00000000E+00  0.00000000E+00  0.00000000E+00
  0.00000000E+00  0.00000000E+00  0.00000000E+00
  0.00000000E+00  0.00000000E+00  0.00000000E+00
  0.00000000E+00  0.00000000E+00  0.00000000E+00
  0.00000000E+00  0.00000000E+00  0.00000000E+00
  0.00000000E+00  0.00000000E+00  0.00000000E+00
  0.00000000E+00  0.00000000E+00  0.00000000E+00
  0.00000000E+00  0.00000000E+00  0.00000000E+00
  0.00000000E+00  0.00000000E+00  0.00000000E+00
  0.00000000E+00  0.00000000E+00  0.00000000E+00
  0.00000000E+00  0.00000000E+00  0.00000000E+00
  0.00000000E+00  0.00000000E+00  0.00000000E+00
  0.00000000E+00  0.00000000E+00  0.00000000E+00
  0.00000000E+00  0.00000000E+00  0.00000000E+00
  0.00000000E+00  0.00000000E+00  0.00000000E+00
  0.00000000E+00  0.00000000E+00  0.00000000E+00
  0.00000000E+00  0.00000000E+00  0.00000000E+00
  0.00000000E+00  0.00000000E+00  0.00000000E+00
  0.00000000E+00  0.00000000E+00  0.00000000E+00
  0.00000000E+00  0.00000000E+00  0.00000000E+00
  0.00000000E+00  0.00000000E+00  0.00000000E+00
  0.00000000E+00  0.00000000E+00  0.00000000E+00
  0.00000000E+00  0.00000000E+00  0.00000000E+00
  0.00000000E+00  0.00000000E+00  0.00000000E+00
  0.00000000E+00  0.00000000E+00  0.00000000E+00
  0.00000000E+00  0.00000000E+00  0.00000000E+00
  0.00000000E+00  0.00000000E+00  0.00000000E+00
  0.00000000E+00  0.00000000E+00  0.00000000E+00
  0.00000000E+00  0.00000000E+00  0.00000000E+00
  0.00000000E+00  0.00000000E+00  0.00000000E+00
  0.00000000E+00  0.00000000E+00  0.00000000E+00
  0.00000000E+00  0.00000000E+00  0.00000000E+00
  0.00000000E+00  0.00000000E+00  0.00000000E+00
  0.00000000E+00  0.00000000E+00  0.00000000E+00
  0.00000000E+00  0.00000000E+00  0.00000000E+00
  0.00000000E+00  0.00000000E+00  0.00000000E+00
  0.00000000E+00  0.00000000E+00  0.00000000E+00
  0.00000000E+00  0.00000000E+00  0.00000000E+00
  0.00000000E+00  0.00000000E+00  0.00000000E+00
  0.00000000E+00  0.00000000E+00  0.00000000E+00
  0.00000000E+00  0.00000000E+00  0.00000000E+00
  0.00000000E+00  0.00000000E+00  0.00000000E+00
  0.00000000E+00  0.00000000E+00  0.00000000E+00
  0.00000000E+00  0.00000000E+00  0.00000000E+00
  0.00000000E+00  0.00000000E+00  0.00000000E+00
  0.00000000E+00  0.00000000E+00  0.00000000E+00
  0.00000000E+00  0.00000000E+00  0.00000000E+00
  0.00000000E+00  0.00000000E+00  0.00000000E+00
  0.00000000E+00  0.00000000E+00  0.00000000E+00
  0.00000000E+00  0.00000000E+00  0.00000000E+00
  0.00000000E+00  0.00000000E+00  0.00000000E+00
  0.00000000E+00  0.00000000E+00  0.00000000E+00
  0.00000000E+00  0.00000000E+00  0.00000000E+00
  0.00000000E+00  0.00000000E+00  0.00000000E+00
  0.00000000E+00  0.00000000E+00  0.00000000E+00
  0.00000000E+00  0.00000000E+00  0.00000000E+00
  0.00000000E+00  0.00000000E+00  0.00000000E+00
  0.00000000E+00  0.00000000E+00  0.00000000E+00
  0.00000000E+00  0.00000000E+00  0.00000000E+00
  0.00000000E+00  0.00000000E+00  0.00000000E+00
  0.00000000E+00  0.00000000E+00  0.00000000E+00
  0.00000000E+00  0.00000000E+00  0.00000000E+00
  0.00000000E+00  0.00000000E+00  0.00000000E+00
  0.00000000E+00  0.00000000E+00  0.00000000E+00
  0.00000000E+00  0.00000000E+00  0.00000000E+00
  0.00000000E+00  0.00000000E+00  0.00000000E+00
  0.00000000E+00  0.00000000E+00  0.00000000E+00
  0.00000000E+00  0.00000000E+00  0.00000000E+00
  0.00000000E+00  0.00000000E+00  0.00000000E+00
  0.00000000E+00  0.00000000E+00  0.00000000E+00
  0.00000000E+00  0.00000000E+00  0.00000000E+00
  0.00000000E+00  0.00000000E+00  0.00000000E+00
  0.00000000E+00  0.00000000E+00  0.00000000E+00
  0.00000000E+00  0.00000000E+00  0.00000000E+00
  0.00000000E+00  0.00000000E+00  0.00000000E+00
  0.00000000E+00  0.00000000E+00  0.00000000E+00
  0.00000000E+00  0.00000000E+00  0.00000000E+00
  0.00000000E+00  0.00000000E+00  0.00000000E+00
  0.00000000E+00  0.00000000E+00  0.00000000E+00
  0.00000000E+00  0.00000000E+00  0.00000000E+00
  0.00000000E+00  0.00000000E+00  0.00000000E+00
  0.00000000E+00  0.00000000E+00  0.00000000E+00
  0.00000000E+00  0.00000000E+00  0.00000000E+00
  0.00000000E+00  0.00000000E+00  0.00000000E+00
  0.00000000E+00  0.00000000E+00  0.00000000E+00
  0.00000000E+00  0.00000000E+00  0.00000000E+00
  0.00000000E+00  0.00000000E+00  0.00000000E+00
  0.00000000E+00  0.00000000E+00  0.00000000E+00
  0.00000000E+00  0.00000000E+00  0.00000000E+00
  0.00000000E+00  0.00000000E+00  0.00000000E+00
  0.00000000E+00  0.00000000E+00  0.00000000E+00
  0.00000000E+00  0.00000000E+00  0.00000000E+00
  0.00000000E+00  0.00000000E+00  0.00000000E+00
  0.00000000E+00  0.00000000E+00  0.00000000E+00
  0.00000000E+00  0.00000000E+00  0.00000000E+00
  0.00000000E+00  0.00000000E+00  0.00000000E+00
  0.00000000E+00  0.00000000E+00  0.00000000E+00
  0.00000000E+00  0.00000000E+00  0.00000000E+00
  0.00000000E+00  0.00000000E+00  0.00000000E+00
  0.00000000E+00  0.00000000E+00  0.00000000E+00
  0.00000000E+00  0.00000000E+00  0.00000000E+00
  0.00000000E+00  0.00000000E+00  0.00000000E+00
  0.00000000E+00  0.00000000E+00  0.00000000E+00
  0.00000000E+00  0.00000000E+00  0.00000000E+00
  0.00000000E+00  0.00000000E+00  0.00000000E+00
  0.00000000E+00  0.00000000E+00  0.00000000E+00
  0.00000000E+00  0.00000000E+00  0.00000000E+00
  0.00000000E+00  0.00000000E+00  0.00000000E+00
  0.00000000E+00  0.00000000E+00  0.00000000E+00
  0.00000000E+00  0.00000000E+00  0.00000000E+00
  0.00000000E+00  0.00000000E+00  0.00000000E+00
  0.00000000E+00  0.00000000E+00  0.00000000E+00
  0.00000000E+00  0.00000000E+00  0.00000000E+00
  0.00000000E+00  0.00000000E+00  0.00000000E+00
  0.00000000E+00  0.00000000E+00  0.00000000E+00
  0.00000000E+00  0.00000000E+00  0.00000000E+00
  0.00000000E+00  0.00000000E+00  0.00000000E+00
  0.00000000E+00  0.00000000E+00  0.00000000E+00
  0.00000000E+00  0.00000000E+00  0.00000000E+00
  0.00000000E+00  0.00000000E+00  0.00000000E+00
  0.00000000E+00  0.00000000E+00  0.00000000E+00
  0.00000000E+00  0.00000000E+00  0.00000000E+00
  0.00000000E+00  0.00000000E+00  0.00000000E+00
  0.00000000E+00  0.00000000E+00  0.00000000E+00
  0.00000000E+00  0.00000000E+00  0.00000000E+00
  0.00000000E+00  0.00000000E+00  0.00000000E+00
  0.00000000E+00  0.00000000E+00  0.00000000E+00
  0.00000000E+00  0.00000000E+00  0.00000000E+00
  0.00000000E+00  0.00000000E+00  0.00000000E+00
  0.00000000E+00  0.00000000E+00  0.00000000E+00
  0.00000000E+00  0.00000000E+00  0.00000000E+00
  0.00000000E+00  0.00000000E+00  0.00000000E+00
  0.00000000E+00  0.00000000E+00  0.00000000E+00
  0.00000000E+00  0.00000000E+00  0.00000000E+00
  0.00000000E+00  0.00000000E+00  0.00000000E+00
  0.00000000E+00  0.00000000E+00  0.00000000E+00
  0.00000000E+00  0.00000000E+00  0.00000000E+00
  0.00000000E+00  0.00000000E+00  0.00000000E+00
  0.00000000E+00  0.00000000E+00  0.00000000E+00
  0.00000000E+00  0.00000000E+00  0.00000000E+00
  0.00000000E+00  0.00000000E+00  0.00000000E+00
  0.00000000E+00  0.00000000E+00  0.00000000E+00
  0.00000000E+00  0.00000000E+00  0.00000000E+00
  0.00000000E+00  0.00000000E+00  0.00000000E+00
  0.00000000E+00  0.00000000E+00  0.00000000E+00
  0.00000000E+00  0.00000000E+00  0.00000000E+00
  0.00000000E+00  0.00000000E+00  0.00000000E+00
  0.00000000E+00  0.00000000E+00  0.00000000E+00
  0.00000000E+00  0.00000000E+00  0.00000000E+00
  0.00000000E+00  0.00000000E+00  0.00000000E+00
  0.00000000E+00  0.00000000E+00  0.00000000E+00
  0.00000000E+00  0.00000000E+00  0.00000000E+00
  0.00000000E+00  0.00000000E+00  0.00000000E+00
  0.00000000E+00  0.00000000E+00  0.00000000E+00
  0.00000000E+00  0.00000000E+00  0.00000000E+00
  0.00000000E+00  0.00000000E+00  0.00000000E+00
  0.00000000E+00  0.00000000E+00  0.00000000E+00
  0.00000000E+00  0.00000000E+00  0.00000000E+00
  0.00000000E+00  0.00000000E+00  0.00000000E+00
  0.00000000E+00  0.00000000E+00  0.00000000E+00
  0.00000000E+00  0.00000000E+00  0.00000000E+00
  0.00000000E+00  0.00000000E+00  0.00000000E+00
  0.00000000E+00  0.00000000E+00  0.00000000E+00
  0.00000000E+00  0.00000000E+00  0.00000000E+00
  0.00000000E+00  0.00000000E+00  0.00000000E+00
  0.00000000E+00  0.00000000E+00  0.00000000E+00
  0.00000000E+00  0.00000000E+00  0.00000000E+00
  0.00000000E+00  0.00000000E+00  0.00000000E+00
  0.00000000E+00  0.00000000E+00  0.00000000E+00
  0.00000000E+00  0.00000000E+00  0.00000000E+00
